21
# CELL(abcABC):   105.83544   105.83544   105.83544    90.00000    90.00000    90.00000  Step:      100000  Bead:        0 positions{angstrom}  cell{angstrom}
C       39.843932625548      59.819934628741      25.120888420471
C       37.443963444495      59.585510489045      23.621125662316
C       39.817105893147      59.415073166136      23.822129837624
C       38.666319700338      59.419381166635      22.968225235880
C       34.631457824746      59.653685948607      27.324185929734
C       38.605948920071      59.802808997672      25.708058060237
C       37.413868007383      59.686275602888      25.040494459303
O       39.471114718466      60.327830598029      27.751801281920
O       35.875540344701      61.605104735147      26.842806471321
O       37.708655142384      59.234389099837      27.956918508441
C       38.626769711562      59.866480391326      27.281863005181
C       35.650333345012      60.323752854543      26.629277691897
O       36.177893770502      59.586827061105      25.598221158544
H       37.691572261362      59.296741788599      28.870801603545
H       40.806868904484      59.811507941252      25.568738342438
H       36.513051972367      59.588652885421      23.201939886817
H       40.962164730579      59.270040149013      23.187268948584
H       38.805126620415      58.976372818515      21.979862645383
H       33.793653413759      59.119199870815      26.463910969762
H       35.090724902108      58.753878758734      27.766789850682
H       34.260778598505      60.338539170578      28.015792773215
21
# CELL(abcABC):   105.83544   105.83544   105.83544    90.00000    90.00000    90.00000  Step:      100050  Bead:        0 positions{angstrom}  cell{angstrom}
C       39.210732740557      60.989094635135      26.710062084130
C       37.466351527420      59.107550651680      27.842871937522
C       38.991446500456      60.921654932989      27.968231786964
C       38.198161668925      59.930631925722      28.625655816559
C       35.199906377888      58.006804984318      23.873450195275
C       38.281016453911      60.384046185583      25.945846270362
C       37.354908619195      59.367878865240      26.437700085978
O       39.171980182709      60.618011621603      23.799420112695
O       37.450720224784      57.341773054985      24.405391634944
O       37.199500249689      61.313584686782      23.922045063130
C       38.167969319519      60.698120909101      24.458838957414
C       36.451024779655      57.994801532619      24.616978222835
O       36.435022580028      58.769330133826      25.800271860955
H       37.224458773652      61.460963133671      22.878840381127
H       39.738885676634      61.790661683741      26.384201118833
H       36.794714994778      58.459124319634      28.134793579999
H       39.806614910094      61.531906592061      28.839826800048
H       38.055681398606      59.927378043902      29.751398746253
H       34.350921542434      57.655409442434      24.594421196282
H       34.997264934637      59.042692821107      23.707228548172
H       35.485226111193      57.501743634606      23.012031996778
21
# CELL(abcABC):   105.83544   105.83544   105.83544    90.00000    90.00000    90.00000  Step:      100100  Bead:        0 positions{angstrom}  cell{angstrom}
C       38.902180166516      58.059841116876      24.466579542098
C       36.744667023252      57.801197915823      26.327663676567
C       38.653458352005      56.888221684684      25.140143887554
C       37.417581531937      56.748501087832      25.964581887281
C       35.898654906092      62.386830862393      26.843012629467
C       38.165438536639      59.115249207993      25.076976823671
C       37.181324350423      59.058046742891      25.935344680400
O       39.160811452346      60.647374882642      23.501663496474
O       35.256618086283      61.119649620466      24.959965153966
O       39.069036225691      61.560913874767      25.557160671056
C       38.759591395182      60.549582859035      24.589485527413
C       35.893175612227      61.157579089141      25.994207269889
O       36.632429027173      60.208111913578      26.546346053713
H       39.376135153187      62.236900076173      25.087043037189
H       39.703911965708      58.135557056215      23.951592468648
H       35.960889517515      57.836125013224      26.866448483819
H       39.249632343350      55.923751186333      24.948765870550
H       37.159103743955      55.790369214983      26.398203143128
H       35.403415483203      62.122698698855      27.815093435623
H       36.958013919686      62.597633514265      27.107332893795
H       35.441764561391      63.059242623189      26.238542560922
21
# CELL(abcABC):   105.83544   105.83544   105.83544    90.00000    90.00000    90.00000  Step:      100150  Bead:        0 positions{angstrom}  cell{angstrom}
C       35.696829992673      58.625753242841      27.098329778599
C       35.629786346494      60.187836340545      24.814422098151
C       34.488448019876      59.103655566598      26.768091096648
C       34.398793436580      59.921267331571      25.583029639137
C       40.224286861981      60.728875567054      24.278589884666
C       36.914563374009      59.089020545041      26.510082725550
C       36.858661259254      59.883966955344      25.507578150741
O       38.417371092350      57.647368074549      27.490389450768
O       38.909990111865      58.817357547416      23.574341869162
O       39.034197481268      59.735667480371      27.640522822714
C       38.159841599426      58.747563577339      27.155939215821
C       39.017474086712      59.877518270369      24.156022866955
O       37.910090576122      60.492407906590      24.830833069408
H       39.978350802585      59.431245329758      27.980800166440
H       35.714115521737      58.086244150546      28.119595707995
H       35.805353626577      60.784672391367      23.916278159743
H       33.488479775399      58.869688311972      27.380823189723
H       33.487169275688      60.323417751689      25.312905346758
H       39.932286192601      61.727088253416      23.941257416293
H       40.341545463332      60.921305848628      25.340829380254
H       40.848737420885      60.284500465208      23.859418490873
21
# CELL(abcABC):   105.83544   105.83544   105.83544    90.00000    90.00000    90.00000  Step:      100200  Bead:        0 positions{angstrom}  cell{angstrom}
C       36.084999157952      60.930957055289      27.390444096201
C       38.877354403902      60.604530736874      27.050552442108
C       36.878541675990      61.335511786228      28.442429569047
C       38.296009195366      61.190949975861      28.248134879764
C       38.619282760785      58.036657582951      23.283144122168
C       36.565412315404      60.174281431530      26.427958962804
C       37.913326258509      59.959554140390      26.202497575425
O       34.705395562269      60.058175186257      25.085735845093
O       38.488143094793      60.405658767592      23.318373576792
O       35.602490767767      58.143009706303      25.394174474451
C       35.637991411851      59.439610778438      25.482204737988
C       38.542352625214      59.273967271235      23.953198531413
O       38.451916926384      59.175492479820      25.246311035413
H       34.904854280715      57.622573382503      24.923100455179
H       35.067663393625      61.088428033124      27.819445124771
H       39.679854883876      60.438441431774      26.773835041327
H       36.510519400799      61.933680732391      29.457708475908
H       38.900821915348      61.636089001741      28.991111181613
H       39.561472391629      57.493834089016      23.617459464380
H       37.804940672918      57.419581133866      23.480857060263
H       38.597382310397      58.341113726906      22.238411276612
21
# CELL(abcABC):   105.83544   105.83544   105.83544    90.00000    90.00000    90.00000  Step:      100250  Bead:        0 positions{angstrom}  cell{angstrom}
C       37.711718837534      61.359629767847      27.553761448475
C       37.503450457591      61.489078580614      24.766818624963
C       37.860529927647      62.489766346069      26.941137630784
C       37.704008256852      62.685198248619      25.498703913586
C       36.767289165910      57.048675058317      23.773490568153
C       37.523804196412      60.255096821668      26.754440538211
C       37.500122555048      60.243477837448      25.387668337626
O       37.104373651825      58.697051476650      28.493245092496
O       35.230743462639      58.717362597564      24.248239682144
O       38.560354269631      57.917806896843      27.047368693070
C       37.647700876435      58.830529626567      27.351907952332
C       36.384534042931      58.389516265241      24.217701043251
O       37.399244414513      59.241654463363      24.507454830273
H       38.474727130199      57.010778792717      27.476087962173
H       37.821242946449      61.354683969690      28.618769678195
H       37.260813463812      61.518838261264      23.820255736233
H       38.158361380593      63.562362546116      27.601780574662
H       38.067895441910      63.634454333618      25.172573251341
H       37.566346334469      57.143076692957      22.889851153146
H       37.390085927967      56.554377123724      24.524916915067
H       36.092620474311      56.412827203414      23.713920005746
21
# CELL(abcABC):   105.83544   105.83544   105.83544    90.00000    90.00000    90.00000  Step:      100300  Bead:        0 positions{angstrom}  cell{angstrom}
C       35.963390436606      59.591110539334      23.578892529206
C       35.445882100452      60.058001351252      26.351793069443
C       34.677215935975      59.456972213003      24.108354279888
C       34.388064858130      59.865990352053      25.469778270049
C       39.842374912924      60.334553706871      27.802730858352
C       36.920970369288      59.618304872053      24.488010120872
C       36.777663389350      59.756415558280      25.839561961496
O       38.663787120105      59.443705244596      22.812806161350
O       38.144995951975      61.999960206551      27.273598260487
O       39.218391465664      58.711514947152      24.784002639056
C       38.400824269186      59.243954237346      24.011832083980
C       38.448685582443      60.818157855359      27.280504033964
O       37.758792441939      59.814475774753      26.795637678857
H       40.062388425283      58.459372652092      24.446088116105
H       35.984221110902      59.331543288914      22.653650382198
H       35.527166194171      60.153786907079      27.326297994478
H       33.653807340660      59.270946968422      23.354185070058
H       33.510411856264      59.632997597707      26.003198103038
H       39.726608949328      59.662003834266      28.614886061514
H       40.296314137541      59.988374259727      27.152469731905
H       40.372424952054      61.152711390304      28.170414583918
21
# CELL(abcABC):   105.83544   105.83544   105.83544    90.00000    90.00000    90.00000  Step:      100350  Bead:        0 positions{angstrom}  cell{angstrom}
C       35.249603443544      59.759819136172      26.790454223262
C       37.934819101906      60.190542341969      27.523215464735
C       35.541801863550      59.933148073887      28.078192032559
C       36.911298342875      60.226807401131      28.529488425872
C       39.864892255747      59.728759948152      23.386306893843
C       36.189997221968      59.677235817183      25.931246898323
C       37.573682985176      59.802165794053      26.171952747255
O       34.791755823947      59.368912520695      24.091818638467
O       39.397482688628      61.676558360021      24.814384586059
O       36.614962961702      58.268103822873      23.836630183205
C       35.819318144196      59.083618914994      24.531918749472
C       39.299620912253      60.441865722552      24.573968618160
O       38.609864222833      59.607221280747      25.345828941598
H       36.289287439246      58.024714280308      23.061009379448
H       34.172523588236      59.619578979897      26.709313846127
H       38.960764706734      60.462526821287      27.559179480019
H       34.782194120593      59.883405802602      28.929286100421
H       37.193222521749      60.318557802203      29.467616851824
H       40.547696381832      58.937445150836      23.707510593489
H       39.190025932299      59.341752130188      22.848437717169
H       40.170929460618      60.538456003963      22.779066242871
21
# CELL(abcABC):   105.83544   105.83544   105.83544    90.00000    90.00000    90.00000  Step:      100400  Bead:        0 positions{angstrom}  cell{angstrom}
C       38.241110797734      59.061584750748      23.516242203679
C       38.157741268311      61.393267784969      25.056223445153
C       38.664468258067      60.272288071805      23.017017191906
C       38.847416522243      61.418265788785      23.917272094995
C       35.841196090890      59.942897942975      28.723752811825
C       37.467889547017      59.129161333499      24.725158096863
C       37.348702983945      60.313268103864      25.526108735165
O       37.073960828310      56.860520851944      24.921002441890
O       38.150958871351      60.585478538494      28.386486961635
O       35.258240376486      58.010341704603      25.367232478912
C       36.602639723949      57.953662293377      25.096247221860
C       36.970946379933      60.342898356707      27.857919731678
O       36.693730635849      60.402304658198      26.581003118034
H       34.938943860956      57.203818393317      25.586281728331
H       38.177742406704      58.328972136919      22.873145428109
H       38.201716930939      62.093038528403      25.799900652811
H       39.229899156232      60.249598457929      21.937877047129
H       39.250773150398      62.397591364061      23.479429264652
H       34.870621180130      60.803188306076      28.532516902155
H       35.437500154498      58.961349418226      28.431658826541
H       36.296811936127      59.748636316936      29.796470501864
21
# CELL(abcABC):   105.83544   105.83544   105.83544    90.00000    90.00000    90.00000  Step:      100450  Bead:        0 positions{angstrom}  cell{angstrom}
C       36.130982832878      60.490737534132      23.652682401029
C       37.733862713935      58.344599750197      24.629839905183
C       36.655856599244      59.498214313215      22.717044040244
C       37.371168900092      58.399245526139      23.269289707679
C       37.990131465689      59.533353057961      28.949874929456
C       36.599230472733      60.503427026496      24.834872860920
C       37.393634249373      59.413412812243      25.353743964276
O       35.334901381717      62.327930314858      25.472837938060
O       37.019090143719      57.669366604852      27.773029493043
O       37.236824228433      62.256636516909      26.531933191641
C       36.305806530847      61.719186090146      25.695471420138
C       37.604698120138      58.770994762326      27.741332296805
O       38.014101676721      59.465948061726      26.655673003894
H       36.982759880514      62.948104355466      27.001249440995
H       35.524799156160      61.128588740391      22.970623363784
H       38.298339409083      57.674663008813      25.136759064367
H       36.428514610231      59.515529059449      21.615527507319
H       37.751868037526      57.709078219056      22.570262604099
H       39.147045686440      59.683890415193      28.912219996388
H       37.532011680761      60.477033795519      28.811427641997
H       37.644865067779      59.007983211513      29.715433173760
21
# CELL(abcABC):   105.83544   105.83544   105.83544    90.00000    90.00000    90.00000  Step:      100500  Bead:        0 positions{angstrom}  cell{angstrom}
C       36.149666302294      58.009861368379      24.546874818413
C       35.796733482666      60.832348966728      24.739093672867
C       35.007490390664      58.583282341664      24.044502534495
C       34.966712977151      60.050175605103      24.008756819818
C       39.379709510017      61.923101933986      27.278123925115
C       36.968539991584      58.793221602356      25.367261863187
C       36.822801090876      60.144504053777      25.558128425298
O       38.393520162218      57.003097840476      25.816743410089
O       38.814922099745      62.272844363163      25.053155596715
O       38.116021131707      58.349118801381      27.572195106659
C       37.946663462900      58.118066659612      26.226195437922
C       38.590679218071      61.750115444739      26.098206233069
O       37.479181699999      60.907015857482      26.433755637414
H       38.821467289173      57.674942079362      27.920384804904
H       36.062747872344      57.019665416127      24.585181349794
H       35.754572554766      61.847114659743      24.962607279485
H       34.140454027248      58.060931195528      23.512241141468
H       33.996306358891      60.485294363562      23.625187212415
H       39.017365157342      62.314842415364      28.137941470864
H       39.787538240580      60.970095533439      27.625215497232
H       40.263828141167      62.527246556168      27.133016949983
21
# CELL(abcABC):   105.83544   105.83544   105.83544    90.00000    90.00000    90.00000  Step:      100550  Bead:        0 positions{angstrom}  cell{angstrom}
C       38.823819254276      60.725591991391      27.203785959732
C       35.994859644650      60.465998379111      27.024457864181
C       38.028267337779      61.490807724986      27.959923568056
C       36.602521074724      61.186452930890      28.114946283617
C       35.518586390690      57.870564807066      23.342726385299
C       38.272961638916      60.249537788205      26.128571982014
C       36.915087771373      59.971419402118      26.004362233887
O       40.197873297796      59.415848609282      25.174478908107
O       35.140065266018      57.778035098468      25.711673196226
O       38.910420964099      60.129745557220      23.681409472340
C       39.233650901357      59.784347713672      24.941984763149
C       35.611978338040      58.295121290131      24.742322686440
O       36.295400252789      59.503400191066      24.891940991611
H       39.475925044087      59.807162144144      23.052336086440
H       39.932893782251      60.947900339037      27.179103067241
H       35.150580727970      60.228932294573      26.894538154640
H       38.437727790414      62.122775991812      28.970579745510
H       35.968708029187      61.762742782164      28.709395852874
H       35.142314242489      58.716992234452      22.626824814108
H       36.702477615817      57.813993599932      22.957860332207
H       35.253032190001      56.927477406783      23.455368360559
21
# CELL(abcABC):   105.83544   105.83544   105.83544    90.00000    90.00000    90.00000  Step:      100600  Bead:        0 positions{angstrom}  cell{angstrom}
C       36.971413416272      62.108479928789      24.579732231007
C       36.058357395515      60.609540977312      26.809243816498
C       35.943258183282      62.560876164314      25.252384904702
C       35.504159197826      61.903739527332      26.447286057265
C       38.516792547913      56.934698691271      26.926377796061
C       37.385770405480      60.776793524367      24.820092768414
C       36.925046436194      59.992996093107      25.818418665190
O       39.415711941444      60.597259890742      23.610569275617
O       37.894759922582      58.717507454111      28.333807155569
O       37.852050681585      59.196819421877      22.972951610662
C       38.322729191787      60.107976229167      23.805082405763
C       37.861742899449      58.162180291810      27.260570750195
O       37.215133968424      58.733870384453      26.142250843192
H       38.539325269748      58.753714372902      22.358948025988
H       37.177277170287      62.698218937437      23.789339037251
H       35.800021898831      59.931943555456      27.507367856331
H       35.266298881340      63.558780335435      25.023271528456
H       34.763156248489      62.293035459807      27.072675925873
H       37.782109905862      56.266211416874      26.411385035870
H       39.110904801855      57.155934922747      26.026470207007
H       39.001946115767      56.614592330443      27.677694390345
21
# CELL(abcABC):   105.83544   105.83544   105.83544    90.00000    90.00000    90.00000  Step:      100650  Bead:        0 positions{angstrom}  cell{angstrom}
C       35.458411160322      60.540772971609      24.043794962839
C       37.204903602481      61.658201362479      26.031916226476
C       35.349852047485      61.902674016867      24.394117096528
C       36.314229761138      62.495164031000      25.340677093655
C       39.708663993358      58.174769965547      27.333999688026
C       36.268088966679      59.775931990018      24.806426232270
C       37.108147175708      60.274687954510      25.803363062256
O       35.627628122711      57.878954869803      23.682638932493
O       39.975989574299      60.411935248052      26.562865481196
O       36.367226654212      57.400328782408      25.689989361020
C       36.118323617629      58.312918592124      24.633728725179
C       39.180262014247      59.495974317919      26.821472490107
O       37.934746016692      59.512103511492      26.624274007911
H       36.155604556420      56.416892549188      25.565241447107
H       34.795543101449      60.447966680103      23.369605833633
H       37.996731927967      61.779469095138      26.725506966955
H       34.511258440231      62.655058175345      23.958993184677
H       36.231125654360      63.413577634270      25.644223660352
H       39.236441920937      58.068353081288      28.257922489903
H       39.327471189580      57.378126922222      26.683000553478
H       40.819895567630      58.224840203542      27.313021665791
21
# CELL(abcABC):   105.83544   105.83544   105.83544    90.00000    90.00000    90.00000  Step:      100700  Bead:        0 positions{angstrom}  cell{angstrom}
C       38.965098915635      59.827131326993      23.809622612230
C       37.471593623434      57.996064384359      25.353694157539
C       39.243837410954      58.547280013754      23.748104549445
C       38.380965435628      57.480801955567      24.369098660810
C       34.582645378608      60.324354838206      27.651345772667
C       38.116862782917      60.164581276171      24.823272015900
C       37.353113720555      59.373966644576      25.614431704904
O       38.024793052344      62.485136460873      24.338479530325
O       34.688764875885      58.383608094345      26.463707530509
O       38.201148337261      62.169365549256      26.462897090597
C       38.042645740847      61.752068660162      25.189705688529
C       35.308996451570      59.375078693501      26.878481090594
O       36.574668517764      59.677553106097      26.692620923559
H       38.064671786447      63.108402374661      26.574809366150
H       39.522392619319      60.521431816050      23.289087476764
H       36.896997015587      57.222738421476      25.835418956339
H       40.202098976287      58.174938431740      23.032945327803
H       38.680887868421      56.430589384116      24.302934872235
H       35.168948626169      60.390500404459      28.545626510834
H       34.684653815766      61.329346611783      27.256515461340
H       33.681611609088      60.060473573068      27.754584589004
21
# CELL(abcABC):   105.83544   105.83544   105.83544    90.00000    90.00000    90.00000  Step:      100750  Bead:        0 positions{angstrom}  cell{angstrom}
C       38.101442067465      57.978330720589      27.028599803440
C       35.982750533500      58.658071701478      25.370732621270
C       37.067142526271      57.151245685507      26.933610348737
C       36.003346290133      57.370565228553      26.049036301482
C       36.820287894693      62.613904949402      23.635466571179
C       38.010142420388      59.296330004247      26.410182561492
C       36.966392507322      59.617730915392      25.735596697807
O       40.110288875056      59.896056649053      27.194711776633
O       35.789010255577      60.530531984912      23.088495646739
O       38.598667808648      61.585205197894      27.068393777993
C       38.947134876259      60.277811389187      26.900689153833
C       36.353829963636      61.281087820677      23.946101997347
O       36.616995805074      60.854008994617      25.160186298283
H       39.397889038591      62.222119192905      27.189715010566
H       38.800883388071      57.626445758812      27.590595672501
H       35.226062413373      59.101315193611      24.771564024412
H       37.067259104360      55.932849592781      27.509170422180
H       35.191470774817      56.730752117211      26.074917348836
H       36.240016792127      63.109855772295      24.208015748724
H       37.898097308165      62.704399853314      23.869187373451
H       36.546770338330      62.812961816220      22.644338951752
21
# CELL(abcABC):   105.83544   105.83544   105.83544    90.00000    90.00000    90.00000  Step:      100800  Bead:        0 positions{angstrom}  cell{angstrom}
C       35.622293625119      60.021126838677      23.520176713304
C       36.178301852297      61.279020309885      25.994409596951
C       34.654124226149      60.806755205034      24.063022197227
C       35.087114358112      61.655283244172      25.257179520083
C       39.956168596991      59.712501068143      27.372866693380
C       36.577637623607      59.575404725990      24.356243728346
C       36.879904566125      60.129410954697      25.603441767987
O       37.553968055541      58.118395751229      22.671692031986
O       38.517632751862      61.628096356030      27.544990099064
O       37.692663916685      57.343182432079      24.750335117866
C       37.354218167628      58.370251959835      23.922755415344
C       38.685179435009      60.454435212520      27.123620957123
O       37.848159674797      59.778142174060      26.432870580620
H       38.319114327978      56.643961764367      24.394484710533
H       35.216568575959      59.454434321927      22.489785424454
H       36.526506951135      61.670917406583      26.866451887653
H       33.524934469919      61.279496980778      23.461238897174
H       34.263574854754      62.305907849136      25.659182814884
H       39.797889799294      58.843533399813      28.000363600410
H       40.417635675414      59.375616313988      26.483911159102
H       40.583655406016      60.499322839102      27.841439143795
21
# CELL(abcABC):   105.83544   105.83544   105.83544    90.00000    90.00000    90.00000  Step:      100850  Bead:        0 positions{angstrom}  cell{angstrom}
C       37.007921129900      62.376016082826      25.828247373541
C       37.796759423791      60.375851343678      23.974342899707
C       37.690014999574      62.741915963684      24.639617162112
C       38.137676605464      61.753425195041      23.645674833908
C       36.633073936482      56.509105603419      25.553945984149
C       36.938771461962      61.132020487381      26.118664240341
C       37.425244930769      60.046911331378      25.281363655639
O       35.896823190902      61.533882559025      28.166226423540
O       37.358660037895      57.627937939038      23.564628076285
O       36.959319677196      59.585780159347      28.208096880073
C       36.595452817261      60.750237338650      27.507660709964
C       37.129747046206      57.731766055615      24.781130090796
O       37.426997852140      58.768247067738      25.551809244395
H       36.666613068256      59.418894552440      29.103295324702
H       36.825379977683      63.189588559613      26.519608170915
H       38.113631120888      59.440204201650      23.483360396441
H       37.901694665915      64.018944050316      24.430406069752
H       38.599287779887      62.060522723105      22.865777775274
H       37.420851470317      56.217800001516      26.402654517355
H       35.873136018147      56.705771097677      25.902669111595
H       36.464655003772      55.827508575351      24.697409475502
21
# CELL(abcABC):   105.83544   105.83544   105.83544    90.00000    90.00000    90.00000  Step:      100900  Bead:        0 positions{angstrom}  cell{angstrom}
C       39.725596310762      59.930397545845      25.858580635717
C       37.628744379589      58.749816045129      24.327443841783
C       40.008702521191      58.809635589407      25.182034053576
C       38.921319601329      58.275692351275      24.244498762920
C       33.915641532891      60.851755474254      24.958822250704
C       38.358036593669      60.286872042078      25.980902902953
C       37.353860696330      59.639499061434      25.281166598996
O       38.731076797428      62.278773164508      27.281562634981
O       35.015013955103      59.166651790860      23.505046043646
O       37.201261028699      60.883943736888      28.112169528502
C       38.030552787205      61.313722390363      27.183635883180
C       35.106072622679      59.904639071021      24.606139293299
O       35.982653703481      59.925546701415      25.478805625212
H       37.054249299473      61.706668883175      28.896812143317
H       40.542275269912      60.438334332238      26.492810750133
H       36.841724540047      58.536951562267      23.719710777443
H       41.061076442634      58.326207486504      25.060990512376
H       39.261219900159      57.252297353256      23.698612737985
H       33.539139374843      60.519757235593      25.826926772714
H       34.443783855404      61.835909610605      25.005944117116
H       33.341870134695      60.734081057801      24.009087194062
21
# CELL(abcABC):   105.83544   105.83544   105.83544    90.00000    90.00000    90.00000  Step:      100950  Bead:        0 positions{angstrom}  cell{angstrom}
C       34.710111628127      60.111805277493      25.313431042088
C       37.105538390940      61.296441127361      26.364344564253
C       34.628007063787      61.099999650335      26.206742357450
C       35.744865458307      61.849963092526      26.636853559864
C       40.706537458281      59.371178553078      25.001484730791
C       36.005410619509      59.464863129436      25.217845769873
C       37.106397193474      60.103783287459      25.647993062016
O       35.161970978242      57.706432546980      23.930856481980
O       39.741828080697      61.304886288653      26.225820238747
O       37.168225907043      57.339101008428      24.721824933073
C       36.124849034447      58.111918135933      24.545233777297
C       39.625445889135      60.194928242401      25.722801719219
O       38.360947205420      59.628088060647      25.700741692407
H       37.171804917298      56.695706655332      24.246895510581
H       33.792393760605      59.503939689743      24.924693702245
H       37.887793270832      61.653809314653      26.688432686086
H       33.459896956861      61.606579465442      26.524731312747
H       35.632736276587      62.523252388163      27.344477682767
H       40.764010797495      58.357659538010      25.562839543734
H       40.271279010359      59.172527191469      23.992697376352
H       41.464346347375      59.938589594267      25.048813552554
21
# CELL(abcABC):   105.83544   105.83544   105.83544    90.00000    90.00000    90.00000  Step:      101000  Bead:        0 positions{angstrom}  cell{angstrom}
C       35.123725973267      58.915635259609      24.453936729069
C       37.142112708561      60.694022232245      23.920512066023
C       34.993438970748      59.720411800220      23.463901983400
C       36.056908617044      60.601940031586      23.079628427133
C       40.365572768046      60.722043278400      26.768751141908
C       36.214120341434      59.183961562991      25.376539357300
C       37.189924602078      60.080944357191      25.182394901106
O       35.735084444747      57.346482218104      26.787817930385
O       39.317602456219      61.930917124378      24.899843449897
O       36.320971723268      59.103429113350      27.897185444864
C       36.099340732151      58.409960993995      26.780495130274
C       39.304409851885      61.122824496389      25.777809535118
O       38.156322539696      60.424511662981      25.980558315024
H       36.266887449021      58.408809961213      28.727878902776
H       34.245970198057      58.110501128286      24.773741644055
H       37.999203881659      61.464901028345      23.968496548740
H       33.972412560333      59.720782486691      22.727969187219
H       35.827712344433      61.435562012420      22.335974297992
H       39.922526196020      60.959816768499      27.832022644516
H       40.498235310403      59.724417106653      26.661656439966
H       41.127697026278      61.256588371299      26.457652840600
21
# CELL(abcABC):   105.83544   105.83544   105.83544    90.00000    90.00000    90.00000  Step:      101050  Bead:        0 positions{angstrom}  cell{angstrom}
C       38.881671331656      58.691685774672      23.933519751387
C       36.817251452959      60.551337868263      23.858124006579
C       38.215850703726      58.902111275527      22.793289669504
C       37.234452749511      60.034264397006      22.694056901033
C       35.791311812628      62.049965550554      27.758327877949
C       38.319122188460      59.131797252440      25.112364990441
C       37.300024708756      60.024437141999      25.102243398075
O       39.968234473581      58.375942019601      26.551365301630
O       35.088372158734      62.014544415415      25.525856574183
O       38.001047678343      57.752418574397      27.275814643694
C       38.831295010795      58.511190483071      26.433843652492
C       35.843886336700      61.545037102295      26.372018817088
O       36.593336021773      60.469384072177      26.223782008129
H       38.421725305564      57.632722755240      28.066200086748
H       39.637120987674      57.789945320252      23.855331653516
H       35.968997606478      61.172383961536      24.067878832561
H       38.667968294775      58.376473544677      21.536638848347
H       36.709360780804      60.156983412804      21.827927040470
H       35.590491937850      61.207103630542      28.488647523135
H       37.032490324790      62.391854757115      27.957956325090
H       35.285171789603      62.815298334484      27.731433964368
21
# CELL(abcABC):   105.83544   105.83544   105.83544    90.00000    90.00000    90.00000  Step:      101100  Bead:        0 positions{angstrom}  cell{angstrom}
C       36.090456677269      61.967540530858      24.318284732009
C       35.768753708256      59.684400576938      25.948373611027
C       34.814304474678      61.428805161615      24.600806209756
C       34.716987549940      60.351771959507      25.502179380393
C       39.538452223208      57.945034583615      27.189872735612
C       37.153717690157      61.206822622579      24.666246128010
C       37.113158327983      60.061723801569      25.389412913501
O       38.811989863778      62.721395874614      23.920048442782
O       37.199734772846      57.541602976487      26.931968932978
O       39.239705438476      60.627031464150      23.311994869281
C       38.469818144810      61.562217255921      23.995090472563
C       38.133138528530      58.146772586932      26.606550325234
O       38.087991038756      59.257972843592      25.708030257328
H       40.149085824591      60.942244125393      23.112668277951
H       36.082151607533      62.781446347059      23.595203805943
H       35.960827650761      58.803300622226      26.604924413782
H       33.737697049212      61.940675901268      24.179972020323
H       33.753337505247      60.034401094644      25.663998238192
H       40.114977191545      57.710507665485      26.343828972247
H       39.965171502486      58.897160027636      27.773805021501
H       39.368545770398      57.259766183088      27.924793907875
21
# CELL(abcABC):   105.83544   105.83544   105.83544    90.00000    90.00000    90.00000  Step:      101150  Bead:        0 positions{angstrom}  cell{angstrom}
C       35.541777782103      61.659351181116      24.574380601278
C       36.369734497350      60.086928597443      26.722914061876
C       34.706466026467      61.471291204796      25.604440951006
C       35.164474364519      60.782541051202      26.713189702491
C       40.096231734145      58.247647963722      26.377107003566
C       36.697097982310      60.876013878253      24.488757962581
C       37.119597299117      60.075038742662      25.514156953522
O       37.412945335195      61.758138230420      22.429096443444
O       37.966575387204      57.999055321512      27.468400013375
O       38.051189950016      59.708351119428      22.735443674665
C       37.443967359713      60.838108472126      23.219414872175
C       38.653850964419      58.421445890591      26.515679383603
O       38.141055877163      59.215989594556      25.530470222524
H       38.509022226031      59.715812271425      21.902965066252
H       35.231517863830      62.238503726298      23.753092893491
H       36.725119447187      59.447510698266      27.377671798194
H       33.573485856071      62.094955583838      25.688846425787
H       34.447172576591      60.553178185490      27.524809303047
H       40.290553331660      57.737419648214      25.452098806338
H       40.631574020379      59.125275919527      26.363381109282
H       40.258732138238      57.666300019134      27.182321238879
