21
# CELL(abcABC):   105.83544   105.83544   105.83544    90.00000    90.00000    90.00000  Step:      100000  Bead:        0 positions{angstrom}  cell{angstrom}
C       39.935357587643      59.899225535929      25.126733244390
C       37.476063998083      59.558473628963      23.593612943855
C       39.809744132798      59.378127918704      23.841075570927
C       38.737197795137      59.427305847945      22.971302088810
C       34.657558730543      59.618661404584      27.307877624115
C       38.580359322418      59.746488615569      25.653174694397
C       37.433633809755      59.702817068633      25.043868714414
O       39.465568137766      60.404784894472      27.599982372500
O       35.924634932952      61.633744983535      26.841068804546
O       37.730391889287      59.122592928073      27.996096628680
C       38.624687761276      59.891319436546      27.302068775065
C       35.592627811260      60.322109616422      26.610388022347
O       36.078228976135      59.644247052778      25.574412003609
H       37.690858652666      59.315098336769      28.789334679065
H       40.851771895294      59.794505993528      25.528587446012
H       36.589985551136      59.621973173481      23.300302107819
H       40.972786406794      59.333909120253      23.153284183598
H       38.922447103632      58.957710613113      22.026274027938
H       33.800970006296      59.070628632203      26.435988872180
H       35.127114608756      58.735671806548      27.780320147334
H       34.250676860326      60.383412456211      27.995737906442
21
# CELL(abcABC):   105.83544   105.83544   105.83544    90.00000    90.00000    90.00000  Step:      100050  Bead:        0 positions{angstrom}  cell{angstrom}
C       39.091062509959      61.050393454535      26.635131082780
C       37.420669144285      59.139363442740      27.889375200113
C       38.962737491172      60.987047033824      27.916824852158
C       38.198445689254      59.935073674261      28.645649669546
C       35.201972276766      57.938265747646      23.942070013099
C       38.333476758187      60.390291221695      25.918947103779
C       37.413770674484      59.337118632960      26.476408130684
O       39.208547292572      60.769613829377      23.856690609051
O       37.385807683283      57.369844747330      24.384480288473
O       37.148155087891      61.302275063913      23.918590667518
C       38.183864577392      60.715473903845      24.473702439338
C       36.440236701730      58.001082951800      24.627413294144
O       36.384877888965      58.817051491955      25.800546220794
H       37.239550890086      61.486977274200      22.842199668860
H       39.750524219788      61.849626975454      26.299002808958
H       36.770514014019      58.502100639339      28.149150576808
H       39.870312514533      61.463104713077      28.894954581411
H       38.119969003630      59.857476736081      29.698097274740
H       34.396122656332      57.749591145862      24.530565900401
H       35.030466853215      59.049671738289      23.780500002400
H       35.520575847152      57.571386222381      22.984491905380
21
# CELL(abcABC):   105.83544   105.83544   105.83544    90.00000    90.00000    90.00000  Step:      100100  Bead:        0 positions{angstrom}  cell{angstrom}
C       38.884859976750      58.020969186695      24.454391975313
C       36.749723889558      57.842473206920      26.306177453579
C       38.644121646493      56.849361669039      25.112492619703
C       37.446709516965      56.713790672648      25.915163743258
C       35.923737290806      62.481685619560      26.862561716696
C       38.197899243716      58.987505394203      25.156494245370
C       37.151003523490      59.149413256842      25.932997057281
O       39.208047509033      60.602440820195      23.528017114124
O       35.268304070712      61.098619736917      24.985187759657
O       39.081232311945      61.498128838780      25.491238341428
C       38.786335067432      60.547356866512      24.564356571626
C       35.870745423543      61.167474875977      25.995534872748
O       36.640245408950      60.199361979395      26.566773609074
H       39.264666901381      62.258149959505      25.147045419383
H       39.705559059052      58.076883075485      23.902912863527
H       35.995651373964      57.848051481448      26.862476194355
H       39.196557440642      55.932899836872      24.894010232248
H       37.141174801377      55.822231048579      26.327531782941
H       35.398373220049      62.123529255625      27.776434682103
H       36.989665743312      62.453023657070      27.106469731571
H       35.366574066388      63.027684217256      26.278702131446
21
# CELL(abcABC):   105.83544   105.83544   105.83544    90.00000    90.00000    90.00000  Step:      100150  Bead:        0 positions{angstrom}  cell{angstrom}
C       35.698800960245      58.646209185880      27.081895958001
C       35.681081661674      60.146657119775      24.813577563771
C       34.493009405588      58.987190798438      26.752137195534
C       34.439654173379      59.923750301150      25.551016253067
C       40.200649367706      60.768051610848      24.235206560698
C       36.969797187332      59.065553018233      26.476584145314
C       36.828697892894      59.865809415904      25.627025084927
O       38.326870816640      57.618801506628      27.348718685459
O       38.964252160963      58.814503216736      23.590657766553
O       39.054654023042      59.771125669047      27.657455525819
C       38.188771179460      58.777466655337      27.085240029997
C       38.986091475323      59.872202765936      24.149535085621
O       37.878816466149      60.480480126922      24.798852048099
H       39.831471561909      59.391636720895      27.963682425987
H       35.644515894660      58.081988567059      28.167863774651
H       35.765978615359      60.881034653950      23.937685471827
H       33.505149670041      58.905108309882      27.403254420644
H       33.519053559004      60.385882591742      25.350228066249
H       39.863979667343      61.713009803571      23.939059032854
H       40.348892199187      60.994947632846      25.380653944476
H       40.910767631516      60.412984348582      23.873452169034
21
# CELL(abcABC):   105.83544   105.83544   105.83544    90.00000    90.00000    90.00000  Step:      100200  Bead:        0 positions{angstrom}  cell{angstrom}
C       36.120656032154      60.920135196173      27.416534906786
C       38.873257575033      60.625112201420      27.026601731780
C       36.848856169362      61.416884547453      28.496553398394
C       38.391095248135      61.210122807066      28.247555754637
C       38.579720505166      57.960421686093      23.289562109485
C       36.584837456085      60.142093320801      26.466142138266
C       37.897640530480      59.951921339075      26.164734817596
O       34.706579972924      60.006415215641      25.087363233767
O       38.523544198268      60.426093552302      23.311478711697
O       35.626791182684      58.105313906567      25.520624624906
C       35.638028990611      59.476729867811      25.456358867097
C       38.570692633701      59.228323970959      23.981219692356
O       38.495917176557      59.234477036364      25.180321005194
H       34.980129194163      57.587288871376      24.856948644390
H       35.153639047145      61.077789161720      27.743666843611
H       39.706788888725      60.441471944301      26.785541333056
H       36.473397344171      61.982576688357      29.425881648461
H       38.910267479604      61.647360035527      28.915607785223
H       39.602560035806      57.546406808230      23.576391236903
H       37.724379519488      57.473545600908      23.549037812994
H       38.591824899679      58.397389632585      22.201208305682
21
# CELL(abcABC):   105.83544   105.83544   105.83544    90.00000    90.00000    90.00000  Step:      100250  Bead:        0 positions{angstrom}  cell{angstrom}
C       37.726781684246      61.412453761332      27.534054989201
C       37.538822589444      61.529049360963      24.817206000636
C       37.879797126587      62.489693709137      26.951905159196
C       37.704393614258      62.689485111222      25.561264926278
C       36.729873999217      57.065743968562      23.808334878639
C       37.551807107533      60.250625056714      26.634510603705
C       37.518634255166      60.225745774220      25.375458336729
O       37.141311526540      58.731061457591      28.509707464432
O       35.176399422496      58.644348183096      24.246393944525
O       38.602537347697      57.942533455272      27.091002838613
C       37.644379041026      58.846718331479      27.364805168413
C       36.364161628252      58.455627392769      24.197835663844
O       37.512526966506      59.259928580212      24.521105133694
H       38.490791070584      57.027523385249      27.480381930787
H       37.826127859846      61.360946940925      28.684780530389
H       37.318538641701      61.495783763380      23.821976991580
H       38.089753366526      63.566078477505      27.628275704902
H       38.075842307090      63.628927261142      25.191613707941
H       37.620323592012      57.112578488829      22.874827100324
H       37.408460793892      56.539351416663      24.509425373004
H       36.110957531010      56.409221612608      23.730588142283
21
# CELL(abcABC):   105.83544   105.83544   105.83544    90.00000    90.00000    90.00000  Step:      100300  Bead:        0 positions{angstrom}  cell{angstrom}
C       35.943795028780      59.600407631117      23.499720630135
C       35.455823868506      60.116197890918      26.244504825502
C       34.659711158379      59.527511881664      24.074856927917
C       34.518935073382      59.868299822429      25.537307597450
C       39.843482614308      60.323333553543      27.812863286188
C       36.935237851205      59.542261312407      24.609698027715
C       36.818822499226      59.766323642396      25.831065217196
O       38.734593014376      59.358660584932      22.822364052843
O       38.142684973350      62.097293572308      27.211293469266
O       39.202612602617      58.710698258993      24.802560253300
C       38.395858348981      59.250486124674      23.943110796685
C       38.458958154158      60.804459939579      27.304775386578
O       37.793356680575      59.762999180365      26.772396241455
H       39.986719956980      58.385621884862      24.368087147910
H       35.985697440007      59.352885958763      22.625252539299
H       35.527028544930      60.145137632977      27.229762337526
H       33.610538247216      59.292246962773      23.343763043078
H       33.515207757811      59.679421129055      26.027488149024
H       39.595566280897      59.659366023887      28.578782863134
H       40.234440746172      59.996820317440      27.150355063789
H       40.427584216431      61.119815132040      28.246927380578
21
# CELL(abcABC):   105.83544   105.83544   105.83544    90.00000    90.00000    90.00000  Step:      100350  Bead:        0 positions{angstrom}  cell{angstrom}
C       35.285387258329      59.730248967801      26.790027939300
C       37.991518929397      60.142750122429      27.588849315558
C       35.533990818972      59.931599050611      28.068706353198
C       36.950571174972      60.248077855763      28.612849118873
C       39.894310208867      59.766302297268      23.332841565590
C       36.261337327202      59.654957681012      25.928320283938
C       37.604964172307      59.803270474217      26.163725217606
O       34.759358911614      59.419232293376      24.085657228017
O       39.446810266483      61.681563581237      24.888156027715
O       36.658360100736      58.258874412202      23.824029406644
C       35.890444599040      59.133715001891      24.644317052934
C       39.284121596379      60.443091114087      24.533386271193
O       38.591623069545      59.637993116614      25.376667210074
H       36.296696132822      58.012125518806      23.080863796795
H       34.160710359239      59.581684257873      26.700583759157
H       38.943082638687      60.432997037971      27.587215775217
H       34.782293547805      59.905779960992      28.890294139124
H       37.214843908101      60.338029226443      29.517658480759
H       40.553447001815      58.923885275850      23.756094992333
H       39.220238146917      59.340500192211      22.840525411800
H       40.281437581850      60.546349585932      22.773545824041
21
# CELL(abcABC):   105.83544   105.83544   105.83544    90.00000    90.00000    90.00000  Step:      100400  Bead:        0 positions{angstrom}  cell{angstrom}
C       38.227261138136      59.079294248965      23.482342031640
C       38.161989637763      61.354861706314      25.035809262508
C       38.733972525556      60.245108444451      23.119145704549
C       38.769713406537      61.381317868589      23.914476033523
C       35.839644381807      59.904173746785      28.713488300827
C       37.476717756221      59.183956826625      24.744545780117
C       37.266248689596      60.379837929068      25.524385690836
O       37.145154076481      56.764499111252      24.865241676452
O       38.069907814044      60.521143931765      28.405498861510
O       35.327097708177      57.992991301231      25.375845048656
C       36.644413689975      57.966946491507      25.036769577986
C       36.959457662596      60.310078559476      27.818271707002
O       36.749595138683      60.337294940733      26.545919047370
H       34.950365262072      57.177919888994      25.486164365750
H       38.272302597033      58.314395473750      22.820102227273
H       38.224415073930      62.187975649754      25.749220805157
H       39.186932113292      60.246484045601      21.942302467012
H       39.298075164690      62.365219955004      23.504768569123
H       34.892716614052      60.801504151034      28.519578781455
H       35.497203913799      58.974331351209      28.436291343200
H       36.266169752940      59.741146898908      29.775232473160
21
# CELL(abcABC):   105.83544   105.83544   105.83544    90.00000    90.00000    90.00000  Step:      100450  Bead:        0 positions{angstrom}  cell{angstrom}
C       36.226127193183      60.463873972881      23.659625717141
C       37.767013419947      58.328992723237      24.576140134100
C       36.740616750555      59.495503877291      22.745218432648
C       37.340437947468      58.399170183118      23.204010299184
C       37.968980322771      59.493081072736      28.957256421132
C       36.685561107979      60.515812335419      24.766127843350
C       37.324780365187      59.407794838673      25.235819802754
O       35.366886777212      62.365605611034      25.556880959342
O       37.005652462357      57.738584767789      27.757835999149
O       37.213707829128      62.292506782966      26.562313011326
C       36.308545889079      61.652302619390      25.657632283653
C       37.575135281875      58.707958416571      27.669870495922
O       37.980605742726      59.447336979013      26.630295036566
H       36.978638369708      62.981383476500      26.922342875035
H       35.562658829404      61.215737801318      22.986574394904
H       38.324918514005      57.687331742779      25.173034131774
H       36.455631745486      59.585207059668      21.711098683931
H       37.694120705183      57.684763935343      22.591805559399
H       39.161613494186      59.716289341122      28.983659011276
H       37.480479301657      60.463963857871      28.836098309769
H       37.733036262976      59.022534660599      29.832983931856
21
# CELL(abcABC):   105.83544   105.83544   105.83544    90.00000    90.00000    90.00000  Step:      100500  Bead:        0 positions{angstrom}  cell{angstrom}
C       36.188514757472      58.043262529674      24.519991871641
C       35.877090719783      60.849034007020      24.721934629697
C       34.978251943570      58.576891808314      23.942378669822
C       34.983288242136      60.099758975484      24.030411178218
C       39.389590966285      61.816415989269      27.287889008809
C       37.022474178057      58.769200761140      25.333412604652
C       36.850210022662      60.170431448868      25.620900991483
O       38.383830524350      57.047620389081      25.900430996624
O       38.687987301631      62.276024979041      25.052676802701
O       37.990937164927      58.381871994375      27.562531090038
C       38.006341518948      58.129000657792      26.189173493901
C       38.694038664949      61.742243582763      26.068780702017
O       37.502993300116      60.961085593288      26.410962006632
H       38.776693016556      57.565895007698      27.877650367851
H       36.112432895697      57.035386824115      24.581102545205
H       35.729359302067      61.890985893443      24.925340499140
H       34.215121644336      58.054014356211      23.447864648519
H       34.025958722439      60.438576265657      23.644359622494
H       38.994140940947      62.362368761562      28.178929811612
H       39.738823558354      60.993517487774      27.674358188464
H       40.220144757305      62.519703002560      27.112560910519
21
# CELL(abcABC):   105.83544   105.83544   105.83544    90.00000    90.00000    90.00000  Step:      100550  Bead:        0 positions{angstrom}  cell{angstrom}
C       38.789911131666      60.637903562503      27.228609247863
C       35.963624838105      60.381073910646      27.008840312978
C       38.035060038007      61.499564572319      27.959974569272
C       36.640677186573      61.124191737448      28.108920894776
C       35.428351963550      57.857532247349      23.327665467922
C       38.187821622838      60.254345149130      26.128718769613
C       37.010284361848      60.059589728093      26.047398680577
O       40.147101084020      59.433338285178      25.244014016992
O       35.100128839196      57.796461757914      25.728225964902
O       38.929872141722      60.155134595728      23.673715372400
C       39.191150162237      59.700507205723      24.974727575322
C       35.590650361060      58.343549145104      24.747875763589
O       36.278253350680      59.537088816563      24.899653643032
H       39.527518768428      59.758152962009      23.036372353854
H       39.943502069401      60.984818758938      27.168401965359
H       35.085517831596      60.314453666347      26.907422244841
H       38.385305032837      62.052780908311      28.908418036710
H       35.951300480660      61.806364977213      28.661805217975
H       35.170155098922      58.653886711203      22.643038099724
H       36.753390040211      57.806212894432      23.007288696363
H       35.256185618817      56.869256016241      23.492510843810
21
# CELL(abcABC):   105.83544   105.83544   105.83544    90.00000    90.00000    90.00000  Step:      100600  Bead:        0 positions{angstrom}  cell{angstrom}
C       37.025633856859      62.064956860738      24.549990775995
C       35.996912186121      60.525820275520      26.834450469548
C       35.919658430411      62.576135536034      25.215517624262
C       35.422486904676      61.929026356539      26.428199299945
C       38.568535423363      56.997719082952      26.893457647202
C       37.427365094023      60.709109575904      24.792182844335
C       36.969475759793      59.959723147225      25.752457681960
O       39.323886014713      60.643222861849      23.580984057731
O       37.825072297099      58.779188017941      28.326242202901
O       37.815609737917      59.168113064490      23.069246227248
C       38.447019285983      60.053480754305      23.839097317689
C       37.916649922739      58.206086810175      27.185171111936
O       37.218425126538      58.700891626023      26.152588783926
H       38.552745443740      58.571251830787      22.418218436530
H       37.219393042547      62.740360375509      23.746830258048
H       35.774096155267      59.956466837372      27.447219802367
H       35.191804227464      63.592874015663      25.051115789573
H       34.791118227046      62.352119973549      27.016517916883
H       37.804977871483      56.283653657640      26.361051041609
H       39.175017105223      57.163333688774      25.936075147381
H       38.955879596549      56.711439601880      27.658586192629
21
# CELL(abcABC):   105.83544   105.83544   105.83544    90.00000    90.00000    90.00000  Step:      100650  Bead:        0 positions{angstrom}  cell{angstrom}
C       35.396647450441      60.543391686619      24.000438729484
C       37.175569274390      61.662837224923      25.958969982826
C       35.374620528238      61.865933755219      24.394926980838
C       36.236764275606      62.426641566656      25.319069585363
C       39.659147325212      58.126534275089      27.368386222160
C       36.242227705530      59.797294348492      24.797372152295
C       37.061849550240      60.329972298531      25.708498432468
O       35.667995621267      57.896387959188      23.629369971321
O       39.948718031110      60.416547252018      26.612306298121
O       36.389934319591      57.340736508070      25.749092869508
C       36.068934325042      58.352629135294      24.618280509875
C       39.234230090328      59.508482566020      26.816445125729
O       37.966799302824      59.495020641494      26.662756750793
H       36.065872945864      56.378463317424      25.552953446481
H       34.822550639018      60.528019685016      23.397970859020
H       38.036704276355      61.756165909962      26.779672214424
H       34.398991297895      62.659511323210      23.962688997944
H       36.249001305120      63.510077653527      25.712326726337
H       39.223385079405      58.070772527463      28.285923229047
H       39.454747030255      57.409455019560      26.651513744338
H       40.818537083964      58.218085189768      27.288071345729
21
# CELL(abcABC):   105.83544   105.83544   105.83544    90.00000    90.00000    90.00000  Step:      100700  Bead:        0 positions{angstrom}  cell{angstrom}
C       39.004522303317      59.801190447247      23.782570507116
C       37.427740328848      58.032668379603      25.377271362238
C       39.318195414362      58.578522751927      23.762378733299
C       38.341775768242      57.482688143847      24.309414349911
C       34.591401089081      60.409947431705      27.546884008365
C       38.069707162528      60.125423797701      24.877318145664
C       37.411476234309      59.314076299097      25.532562877784
O       38.007634785268      62.523228013427      24.360277390847
O       34.611014061109      58.348880118457      26.537169898943
O       38.147461165275      62.171282042341      26.404784334148
C       38.056878387264      61.780921561277      25.284559084027
C       35.301428422039      59.363281845966      26.872722894486
O       36.569734523910      59.635854231118      26.659963181485
H       38.045734061842      63.073219403398      26.598986750633
H       39.477416000475      60.546100677465      23.262425874981
H       36.960946308125      57.258847347848      25.772250267372
H       40.170903125322      58.158938900237      23.041091289005
H       38.723357379657      56.419840373128      24.330943517984
H       35.210328849505      60.388721754431      28.625008790577
H       34.712639825468      61.306622099576      27.277191274540
H       33.710260801096      60.107076716692      27.791143131091
21
# CELL(abcABC):   105.83544   105.83544   105.83544    90.00000    90.00000    90.00000  Step:      100750  Bead:        0 positions{angstrom}  cell{angstrom}
C       38.041550022248      57.979714379651      27.016234037220
C       36.038102861805      58.697156571980      25.279694078361
C       37.026613758931      57.103047771816      26.913696860070
C       36.022929642669      57.332715104479      26.073064181900
C       36.788183501353      62.691054742467      23.571654765211
C       37.972998742265      59.321206360979      26.435675647169
C       36.973976230829      59.593791970453      25.831092972553
O       40.139647705755      59.936746765327      27.190903397465
O       35.827632717143      60.552865378529      23.191788802783
O       38.606355088586      61.590205114629      27.117098933366
C       38.939489431964      60.280934641697      26.850032275946
C       36.346122595344      61.280789685759      23.984240927534
O       36.636464972321      60.877620554326      25.074119846311
H       39.307130151874      62.210856881413      27.107010750367
H       38.821226007248      57.590128026570      27.712066011145
H       35.233895244230      59.054136751046      24.685556187178
H       36.972941979754      55.956629311523      27.519894689907
H       35.200884908361      56.732293724206      26.167356182427
H       36.248979533643      63.119783346263      24.112650860802
H       37.897963574993      62.756969784395      23.891554814135
H       36.473648408450      62.734528609349      22.597808379879
21
# CELL(abcABC):   105.83544   105.83544   105.83544    90.00000    90.00000    90.00000  Step:      100800  Bead:        0 positions{angstrom}  cell{angstrom}
C       35.740569125369      59.899728583320      23.442242424098
C       36.175544955390      61.339024845244      26.001750163924
C       34.577340663681      60.827199331993      24.084413252984
C       34.976722055285      61.669622731843      25.177185317251
C       40.004004765035      59.714853003491      27.305825329804
C       36.650172657662      59.560950494213      24.430877179598
C       36.961577800451      60.116173104848      25.620398162759
O       37.490135142696      58.163900240375      22.610318736052
O       38.485879569101      61.597490005069      27.513800488576
O       37.719962670157      57.401105675689      24.779036630635
C       37.261679901066      58.328676790347      23.944432920529
C       38.732770632869      60.465558357887      27.096674311841
O       37.881111619494      59.723444665513      26.394311083521
H       38.263501209169      56.551298271743      24.395027724801
H       35.327843417603      59.452188467802      22.574781086618
H       36.543438374369      61.649240843981      26.847546440274
H       33.660573592321      61.257574679734      23.435547374413
H       34.263900740344      62.353029039555      25.645450430227
H       39.827907199217      58.774972652136      28.044230878128
H       40.490243368364      59.374716533957      26.454126987349
H       40.607790791597      60.554479162679      27.861525080374
21
# CELL(abcABC):   105.83544   105.83544   105.83544    90.00000    90.00000    90.00000  Step:      100850  Bead:        0 positions{angstrom}  cell{angstrom}
C       36.984399113533      62.324275537876      25.857747244558
C       37.736950461522      60.351231361060      23.931195053486
C       37.685740992571      62.804286275952      24.620833383897
C       38.061390019899      61.782166367757      23.687806757523
C       36.600816660692      56.571928202078      25.577980680033
C       36.986337533255      61.135503108776      26.103665506026
C       37.372685033139      60.043362888379      25.392189734427
O       35.954703242625      61.542366717936      28.189320650792
O       37.355592951179      57.657372326704      23.632502092406
O       36.959738094519      59.629267471917      28.190208230545
C       36.619986371313      60.733241943224      27.472118282015
C       37.127576988564      57.742880559848      24.754525098074
O       37.465209439808      58.785851689341      25.560386553665
H       36.572758150792      59.454501617884      29.143211490096
H       36.870418481254      63.143242358179      26.495123226841
H       38.180549058248      59.367716764061      23.530728775004
H       37.934423484022      64.080713060848      24.468845149717
H       38.594805387762      62.127872368905      22.912688289226
H       37.472226651753      56.186635056945      26.346858360827
H       35.804248315119      56.669813812709      25.808981373384
H       36.420245288369      55.794794050776      24.645268946694
21
# CELL(abcABC):   105.83544   105.83544   105.83544    90.00000    90.00000    90.00000  Step:      100900  Bead:        0 positions{angstrom}  cell{angstrom}
C       39.762200453321      59.921431578587      25.938850957761
C       37.657836747919      58.825434396327      24.418154541179
C       40.050412923269      58.756569371021      25.188184124993
C       38.928725256111      58.263362854163      24.231544560090
C       33.949410591241      60.825181894944      25.019781600054
C       38.375434103558      60.345501508378      25.975527367727
C       37.369489478526      59.710364549949      25.345695374197
O       38.762891855437      62.290703899548      27.268438318728
O       35.060599356088      59.148558300318      23.502706043229
O       37.185253237623      60.899781622662      28.052250604353
C       38.020592809770      61.337625863768      27.161399846512
C       35.159589929522      59.913987047363      24.545077455036
O       35.942702844338      59.895581593000      25.472713408310
H       37.094350090327      61.676785033820      28.929311235995
H       40.499802263498      60.407221698249      26.519979718804
H       36.829648707199      58.598992779816      23.715111104227
H       40.966458780139      58.349389550167      25.056473410302
H       39.177030305785      57.205781374264      23.605975749669
H       33.568839682801      60.477275812653      25.734034445069
H       34.409312479852      61.815759304006      24.933755691590
H       33.287391514750      60.735877448141      23.925173798305
21
# CELL(abcABC):   105.83544   105.83544   105.83544    90.00000    90.00000    90.00000  Step:      100950  Bead:        0 positions{angstrom}  cell{angstrom}
C       34.763632420411      60.108509018518      25.313009827724
C       37.075844130004      61.294635739168      26.355742737891
C       34.645500121626      61.118395538012      26.171657071669
C       35.744251133123      61.758422127957      26.611996148513
C       40.661502039491      59.395098565661      24.982036074889
C       35.995406964046      59.386460179228      25.273617983178
C       37.102828745711      60.109224378666      25.603598723637
O       35.060168086518      57.739049785915      23.782056082696
O       39.758813391604      61.387314397922      26.287724901114
O       37.323225829013      57.352540352854      24.688884860623
C       36.061971004011      58.002247643224      24.557527880017
C       39.598926094866      60.179623710375      25.698259909185
O       38.375371953385      59.613238623184      25.688703173598
H       37.124317090935      56.723037844932      24.207024946783
H       33.882695279360      59.485057842425      24.887301039468
H       37.864076570089      61.628614214357      26.670483418778
H       33.345269846264      61.558656028344      26.445440381615
H       35.648662789079      62.533903292143      27.352128081956
H       40.697957352382      58.401892147573      25.594987196646
H       40.191902188647      59.209192895090      23.924229618394
H       41.411858292265      59.930952709841      25.140160031672
21
# CELL(abcABC):   105.83544   105.83544   105.83544    90.00000    90.00000    90.00000  Step:      101000  Bead:        0 positions{angstrom}  cell{angstrom}
C       35.184849010987      59.010175716682      24.451972201663
C       37.170251544268      60.661549216225      23.911810690302
C       34.884280539906      59.749355341376      23.500906529047
C       36.059930024530      60.729796097083      23.143171141112
C       40.414686050097      60.661567975990      26.684099730300
C       36.255199863500      59.175557524395      25.308398537809
C       37.256957346517      60.032181321981      25.069898049484
O       35.741295129471      57.318909102047      26.807865048297
O       39.298315294418      61.852143090339      24.825756394532
O       36.282225188815      59.161176249532      27.867780297000
C       36.142040092630      58.432542549237      26.747866541155
C       39.341042876404      61.137735626217      25.732184113468
O       38.152140554697      60.490762311356      25.984023269620
H       36.299934296530      58.333209725219      28.657314765027
H       34.314474829071      58.089272630031      24.726479645123
H       37.978843662784      61.440175907789      24.012106647738
H       34.093705130706      59.819139732023      22.736197676825
H       35.841059540220      61.356970738603      22.432577466342
H       39.928279771375      60.931366176428      27.819410090207
H       40.560302408626      59.807553521636      26.612874254493
H       41.126826382316      61.216835605813      26.457353238244
21
# CELL(abcABC):   105.83544   105.83544   105.83544    90.00000    90.00000    90.00000  Step:      101050  Bead:        0 positions{angstrom}  cell{angstrom}
C       38.834613095043      58.625951640530      23.921323788904
C       36.801561098565      60.521959045703      23.809495626291
C       38.155903824857      58.913467729446      22.744000389655
C       37.265511376227      60.018515400804      22.756173798425
C       35.779476844262      61.981357748165      27.748296179658
C       38.352464395805      59.100777436613      25.132899158085
C       37.262936962057      60.048528536842      25.140088759602
O       39.938187413559      58.362726177297      26.559628203984
O       35.043678812751      62.020471475976      25.451516667699
O       37.950415008935      57.795612899435      27.202600800484
C       38.891992363940      58.533699623387      26.507825891296
C       35.935102743088      61.612921069477      26.336698608896
O       36.536146573163      60.486790595877      26.136772170501
H       38.298137255072      57.714952853921      28.043100926105
H       39.625800230091      57.647681839889      23.886332148234
H       36.008125225119      61.165997106993      24.120335821941
H       38.662542244061      58.433086135704      21.466721074019
H       36.708982541873      60.103603188574      21.848365798018
H       35.553443271864      61.198961531617      28.505218416972
H       37.085103852823      62.408460355016      28.025601454945
H       35.350498327817      62.821182536124      27.753941698677
21
# CELL(abcABC):   105.83544   105.83544   105.83544    90.00000    90.00000    90.00000  Step:      101100  Bead:        0 positions{angstrom}  cell{angstrom}
C       36.119317856658      61.942703631908      24.260440223689
C       35.724101221501      59.726159697408      25.957596526429
C       34.771307864807      61.493807084552      24.650511239733
C       34.630680592084      60.380868187012      25.527520882865
C       39.563484931810      57.914679446335      27.193516033227
C       37.174507271507      61.190660892956      24.738027823590
C       37.066874207203      60.078027805775      25.311122301530
O       38.852396177609      62.677785988255      23.898226094089
O       37.207096609505      57.576766547592      26.966303099171
O       39.262991517403      60.530753221406      23.257637074314
C       38.441298998160      61.551642319779      24.032579875163
C       38.203050640368      58.132606227828      26.649273471231
O       38.094502480050      59.311175748556      25.699023225582
H       40.087357192581      61.025475452936      23.132772453462
H       36.128802827069      62.807187144463      23.698085461612
H       35.899557918534      58.827377380848      26.628608841459
H       33.742431039591      61.909628481418      24.138011405787
H       33.601459160528      60.040878239301      25.693058196058
H       40.120525473385      57.714292179290      26.293854917699
H       39.939991799485      58.837511475791      27.776375577305
H       39.378658010390      57.300750187133      27.912373076239
21
# CELL(abcABC):   105.83544   105.83544   105.83544    90.00000    90.00000    90.00000  Step:      101150  Bead:        0 positions{angstrom}  cell{angstrom}
C       35.450266425997      61.647188523277      24.564617657982
C       36.381940542298      60.137969991209      26.713634817037
C       34.747721133922      61.420299479145      25.586161472729
C       35.105783186639      60.828459769538      26.695611094179
C       39.995071476993      58.204550080653      26.300285086430
C       36.680124719877      60.930235126081      24.519721278601
C       37.206734877982      60.009963387391      25.508670195727
O       37.387982931323      61.827203131145      22.457802317672
O       37.913238654651      57.892217077128      27.467898106501
O       37.945215762025      59.666773684225      22.732687215532
C       37.318711928305      60.682795577110      23.289742687254
C       38.732298119163      58.452449518213      26.453571815597
O       38.128494998535      59.162607907532      25.517838569057
H       38.464855055695      59.753596415634      21.925270407501
H       35.279191978764      62.245598577416      23.717150455076
H       36.682821867913      59.481019768670      27.333706244275
H       33.558295770770      62.088745827888      25.730733170365
H       34.502560090367      60.524572964683      27.498407066211
H       40.276442030897      57.774016970096      25.459127119967
H       40.606291601058      59.197526022801      26.307240171251
H       40.215128304344      57.588915359705      27.150554288697
