21
DetectAna smoke initial geometry
C       37.99450000      61.50380000      27.32060000
C       37.02320000      61.44320000      24.65950000
C       38.05360000      62.62920000      26.56100000
C       37.43680000      62.65970000      25.23950000
C       36.90860000      56.80290000      24.24500000
C       37.72660000      60.31460000      26.65800000
C       37.29430000      60.22770000      25.36990000
O       37.91990000      58.98350000      28.57880000
O       35.44570000      57.94230000      25.75940000
O       38.68960000      57.98770000      26.79510000
C       38.05620000      59.03250000      27.40260000
C       36.39140000      57.98380000      24.95520000
O       37.07470000      59.11670000      24.64420000
H       38.79270000      57.21130000      27.33400000
H       38.44020000      61.62160000      28.26500000
H       36.63580000      61.26120000      23.73490000
H       38.40890000      63.73690000      27.00960000
H       37.52160000      63.54260000      24.68660000
H       36.84030000      57.00720000      23.14110000
H       37.92460000      56.70410000      24.45500000
H       36.38270000      56.03140000      24.62510000
