21
Properties=species:S:1:pos:R:3 frame=0 pbc="F F F" comment="synthetic demo geometry, see scripts/make_demo_data.py"
C       36.269303844152      61.670561568367      25.929669900303
C       39.071534643014      61.214533502413      26.099508245646
C       37.031456649449      62.687880642656      26.639276995321
C       38.448823232603      62.472457514367      26.524763883716
C       38.960654027801      56.667552271395      25.329347367104
C       36.825541125778      60.519586352662      25.646339488232
C       38.120932158176      60.213566681212      25.718216635111
O       34.945087221305      59.665589245225      24.508097272433
O       37.403768687975      57.881504246730      24.020085532697
O       35.957578083954      58.124199014333      25.819803490721
C       35.825196358960      59.377232105923      25.215513960771
C       38.326293656962      57.860228255563      24.850771582754
O       38.741202999278      59.036828893031      25.474425310392
H       35.393874883242      57.539939866851      25.423762257803
H       35.053163677151      61.957280409894      25.979482433584
H       40.172075551930      61.068274354933      26.153261916812
H       36.669573195132      63.652224152564      27.095938154580
H       38.896311476486      63.216980836095      27.197095843079
H       40.145375403366      56.777364112098      25.333874364667
H       38.892189135502      56.563962446079      26.316481884937
H       38.571806782364      55.897572498494      24.935250884860
21
Properties=species:S:1:pos:R:3 frame=1 pbc="F F F" comment="synthetic demo geometry, see scripts/make_demo_data.py"
C       38.895421536038      59.031658522127      27.288632818816
C       37.533982971526      57.985567291389      24.962884432327
C       39.021115234386      57.668820515377      26.918101757918
C       38.437899269179      57.213565204125      25.715524364445
C       35.120719868608      61.576297669255      23.604989196239
C       37.925456223353      59.832074313800      26.540324081271
C       37.220687811767      59.312653881627      25.568403976656
O       38.308159503030      61.732365785120      27.729957157326
O       36.990048667653      60.307600002130      22.740000918486
O       36.175178370948      61.487712239688      27.388328441363
C       37.468965122099      61.056900862829      27.208355835350
C       36.110909816494      60.520204296021      23.666556860935
O       36.217283687321      59.790663070086      24.850400635401
H       35.983163047236      62.366036989715      27.696163967774
H       39.296002813486      59.330860490507      28.035917371195
H       37.039853961546      57.786408474237      24.149558133202
H       39.648666282729      56.971687393237      27.539608976463
H       38.548030941325      56.034766682348      25.509958489026
H       34.224076140951      60.973883966966      23.760111895214
H       35.188248872707      62.113190808457      24.397276437340
H       35.186600421333      61.867725261900      22.677332687642
21
Properties=species:S:1:pos:R:3 frame=2 pbc="F F F" comment="synthetic demo geometry, see scripts/make_demo_data.py"
C       35.160748216225      60.855660133077      25.471091373864
C       36.330355999070      58.464141958103      24.614268027602
C       34.567568451254      60.097832022266      24.606807088941
C       35.077888308683      58.787725709288      24.110560971050
C       40.430043910793      58.782365538896      26.671031170087
C       36.486233334689      60.492650926686      25.858316911337
C       37.120821742511      59.326443162673      25.315468015958
O       36.974079223698      61.884921355040      27.636476770394
O       38.490641261211      57.622697453341      27.285847161758
O       38.316485848654      62.167230305565      25.993982775161
C       37.292446287686      61.496488338485      26.577158079382
C       39.046677015390      58.420839795089      26.483160587166
O       38.364604583684      58.975218798694      25.454168447022
H       38.972214379040      62.749462020858      26.533103533939
H       34.747106218950      61.780530066225      25.890448624293
H       36.938749325274      57.740928969461      24.306581106483
H       33.468505325943      60.422526316089      24.158660521984
H       34.641594975368      58.237892243702      23.379275016707
H       40.938769118453      58.436589084104      25.715101008930
H       40.517007041635      59.902966058703      26.546077412211
H       40.719744505670      58.221240593609      27.502485609716
21
Properties=species:S:1:pos:R:3 frame=3 pbc="F F F" comment="synthetic demo geometry, see scripts/make_demo_data.py"
C       39.309558715744      60.754389378296      27.158170504645
C       38.240092194411      61.390643302705      24.635684401861
C       40.043100284794      61.566021998727      26.221417554024
C       39.463653296724      61.884531829397      25.039751966147
C       35.423380602576      57.791509304344      24.011556678324
C       38.252910559854      60.086389086506      26.557829254809
C       37.666678993726      60.237182545715      25.433300884215
O       37.901640124771      58.880700452005      28.599431809095
O       35.898023188381      58.113040723905      26.287052445135
O       37.171775884910      57.775117976690      26.828739053060
C       37.673422476200      58.913948526428      27.387968266182
C       36.032803210313      58.549291551300      25.147103579272
O       36.699896938588      59.676025085678      24.760815724697
H       36.859772045870      57.236759954988      27.532477889693
H       39.819965664234      60.473494093048      27.979226944382
H       37.807390413319      61.349650166614      23.773262613893
H       41.176142531081      62.046883164723      26.578615704161
H       40.027386267480      62.470221554850      24.318897073891
H       34.575226884320      58.532466179728      23.441819804401
H       36.221330043393      57.614592324942      23.365703208392
H       35.054239331556      57.051083590056      24.332540568114
21
Properties=species:S:1:pos:R:3 frame=4 pbc="F F F" comment="synthetic demo geometry, see scripts/make_demo_data.py"
C       38.457455705990      61.960904164029      26.131160363132
C       36.901331931121      60.112108488695      27.726093214349
C       37.767146994185      62.361309761651      27.254134744683
C       37.082299773158      61.412024084066      28.182620553660
C       36.587821923887      56.799364775396      24.468958045923
C       38.208144101590      60.581504029246      25.757093312434
C       37.376697428298      59.739925815933      26.409885800454
O       39.695655961120      60.626411195802      23.975223494303
O       38.752599290040      57.660999348210      24.874125149988
O       37.792626910676      59.709747802458      23.436388452887
C       38.650212486240      60.274985823421      24.284898397167
C       37.565992081030      57.608963280483      25.145012336488
O       37.044270471055      58.542290759818      25.986943939690
H       38.267645156594      59.447707727595      22.702038937912
H       38.979430665379      62.751578808580      25.678665851941
H       36.415330769036      59.291765297776      28.268441983708
H       37.795832609590      63.468336621154      27.685485651176
H       36.699380777430      61.840118240578      28.987364673932
H       35.983823002252      56.219390171984      25.278070938257
H       35.825902659084      57.354386391316      24.113791621461
H       36.997792351160      56.288451546321      23.699129527378
21
Properties=species:S:1:pos:R:3 frame=5 pbc="F F F" comment="synthetic demo geometry, see scripts/make_demo_data.py"
C       39.308380215347      61.326234853209      25.551396150160
C       37.658653466008      60.598638359084      27.743483133733
C       39.137252937613      62.212433194970      26.671059015901
C       38.419738471035      61.772754758124      27.816099623619
C       35.409079938704      57.222012840078      25.495866907586
C       38.431090689555      60.291626796411      25.500426217530
C       37.640091065682      59.863250751792      26.447627863630
O       39.290307526150      59.642208901259      23.393826467218
O       37.769961116217      57.093307525444      25.452282898460
O       37.212830207718      59.136169427533      23.557527151556
C       38.373037719748      59.625840114333      24.139955654814
C       36.785855682947      57.739347064184      25.760283074390
O       36.691764289889      58.857816081661      26.365368210333
H       37.272834851280      58.769896947195      22.919066714033
H       39.908741769789      61.727297354028      24.802209947091
H       37.049945796657      60.144017175795      28.230384610977
H       39.836233753346      63.408186150208      26.817565321472
H       38.223865103437      62.368334705216      28.466098083361
H       34.884675858673      57.213403088015      26.322327382816
H       34.943901321470      57.848734287074      24.841578936865
H       35.730959436469      56.405089377534      24.971146636795
21
Properties=species:S:1:pos:R:3 frame=6 pbc="F F F" comment="synthetic demo geometry, see scripts/make_demo_data.py"
C       38.935030753040      60.826906159612      27.157569300570
C       39.286051733645      59.602415405302      24.700199554692
C       40.252319735353      60.533435447177      26.791234276234
C       40.420450583861      59.927054212901      25.447369308665
C       34.825182616424      58.194147856133      24.320434685556
C       37.928561293301      60.281688705977      26.559396707082
C       38.037465560460      59.551137219173      25.365882958967
O       36.441531626010      61.059513687201      28.139453152793
O       35.459620685124      60.493002433458      24.175725636556
O       35.649474589379      59.265415104280      27.175670650572
C       36.537437486310      60.259427193418      27.286159325321
C       35.724718241260      59.324138980791      24.455186743107
O       37.026594718282      58.956013220692      24.749304968186
H       34.815556275484      59.464318523600      27.535932996876
H       39.031132575098      61.271847785962      28.166590067875
H       39.205366181969      59.066722565044      23.814497947447
H       41.295279994982      60.922090099410      27.354564401259
H       41.391386315578      59.778724912631      25.134339013624
H       35.313252234143      57.463662952564      23.593685121349
H       34.751876453363      57.598100136709      25.202409213407
H       34.101050911226      58.633378368991      24.109513112592
21
Properties=species:S:1:pos:R:3 frame=7 pbc="F F F" comment="synthetic demo geometry, see scripts/make_demo_data.py"
C       35.519919244956      60.579677332686      26.792423095805
C       38.131087410516      61.439785738606      26.766034209433
C       35.962264782692      61.398369940383      27.703025777448
C       37.225472267948      62.079565678018      27.734182666423
C       39.812780139998      57.982257494219      24.206227320406
C       36.458323863306      59.909444525719      26.103470793577
C       37.764639444271      60.290994704025      26.038647505214
O       34.862241558028      58.358869853793      25.252821384896
O       38.181860660418      59.371087601908      23.226175780854
O       36.976328210554      57.638991799821      25.123211140660
C       36.081374899499      58.588138754747      25.342985835065
C       38.903757437348      59.062136802870      24.222845797909
O       38.806290387283      59.677833459271      25.464662174450
H       36.647709844174      56.978297512997      24.522327472721
H       34.418274265841      60.162018255429      27.011642146210
H       39.106793624946      61.644803093081      26.626266356857
H       34.991968608069      61.977151079638      28.554664212304
H       37.414630973779      62.754105498003      28.466418903343
H       40.933713372865      58.338819411216      24.450970435149
H       39.684830049853      57.320882248709      24.907821532162
H       39.748773678281      57.634432958973      23.233094020086
21
Properties=species:S:1:pos:R:3 frame=8 pbc="F F F" comment="synthetic demo geometry, see scripts/make_demo_data.py"
C       35.785083035049      58.672355907417      27.267727910655
C       37.558999288014      57.574104575505      25.376043723564
C       35.552190696868      57.447471941341      26.827414137033
C       36.433610257680      56.750310482813      25.924275886638
C       39.592936473380      61.562181350504      24.054804099834
C       36.713578056775      59.502382629526      26.569047920655
C       37.573181552608      58.988834286263      25.680560232029
O       36.547805286460      61.326709113346      27.985041632792
O       39.747501287098      60.867802068489      26.366979988646
O       36.710408336670      61.844961439893      25.807888072772
C       36.740231066284      60.946672116100      26.903154056961
C       39.230352018460      60.655842311809      25.205505418578
O       38.433906481193      59.630087008294      24.882831735052
H       36.802841763314      62.804569894687      26.013095265674
H       35.097542937914      59.101852604983      27.818569948103
H       38.237125640248      57.177058666858      24.770496728056
H       34.650934667117      56.766653138680      27.386466236328
H       36.271394917769      55.791058736666      25.657979780839
H       40.027457762366      60.814193732971      23.216712903605
H       38.574124395888      61.793131061256      23.463186872832
H       40.025339371014      62.070918615780      24.327808529297
21
Properties=species:S:1:pos:R:3 frame=9 pbc="F F F" comment="synthetic demo geometry, see scripts/make_demo_data.py"
C       37.046092609744      60.510436655746      28.029609572223
C       35.369082480892      59.990434573695      25.755159363166
C       35.876365162653      60.972741234274      27.954746381196
C       34.861643269603      60.609338604685      26.882736991806
C       38.730132143139      58.489451508898      22.927355151409
C       37.541453241852      59.943726907928      26.807469641517
C       36.866942536597      59.763172808182      25.707716623149
O       39.662263252773      59.532081901433      27.687591552850
O       37.720355568394      57.185573347707      24.627187203576
O       39.732031032785      60.137366652508      25.614358490005
C       39.086006709054      59.846143414898      26.747715312816
C       37.920707836300      58.291715966390      24.155589823581
O       37.212204634443      59.371380407726      24.463636466955
H       40.554673262442      59.903898360702      25.676700067063
H       37.586827699087      60.765655985226      28.808776856817
H       34.890408053739      59.708720252224      24.758891652659
H       35.346820478343      61.601151028741      29.040678985332
H       34.063862944151      61.070298163371      26.931230343082
H       38.108880433267      58.761915366113      22.117138826968
H       39.587637703809      59.330750632158      23.121380659696
H       39.246847638065      57.508890213444      22.719703841400
21
Properties=species:S:1:pos:R:3 frame=10 pbc="F F F" comment="synthetic demo geometry, see scripts/make_demo_data.py"
C       39.030497492057      61.683296195857      26.194818358283
C       39.504089291633      58.984294152913      26.721589567991
C       40.067497913903      61.273050922713      26.935812627509
C       40.415178166214      59.879922510536      27.273918035228
C       35.379774599006      57.480767105507      25.301580703156
C       38.141420129552      60.713247449982      25.784491448787
C       38.286973625825      59.410569665092      26.028113134189
O       36.893162261273      62.060936672804      24.431663840035
O       36.700787711899      58.679689171725      23.742276240313
O       35.653816685340      60.654947923284      25.566288154925
C       36.880932353587      61.098542932737      25.144542037253
C       36.522804958139      58.208729329044      24.777068551552
O       37.485371661792      58.358748543915      25.800156852732
H       34.905820981617      61.031033349147      24.993562212157
H       38.946065059038      62.691662048972      25.989460462919
H       39.550155927900      57.962918737846      26.893702306420
H       40.912761896185      62.170577360002      27.502819305278
H       40.986455702264      59.668581361577      27.802417725444
H       35.775522730385      56.296794509299      25.608353255818
H       35.039950083944      57.858035457570      26.178684697953
H       34.586419450373      57.465033650501      24.519547194200
21
Properties=species:S:1:pos:R:3 frame=11 pbc="F F F" comment="synthetic demo geometry, see scripts/make_demo_data.py"
C       38.763985845167      61.212947611844      24.297150982002
C       38.676791199383      58.447577164573      24.440056075842
C       39.783125650746      60.470707893263      23.850087788968
C       39.794451737015      59.060200351579      23.784148227210
C       35.529392233929      57.997721960429      27.833808247032
C       37.833645113928      60.518486119633      25.137027736777
C       37.775760360760      59.155439191632      25.248093565598
O       36.689865272087      62.541129275024      25.688116684974
O       35.082364778410      59.685598436315      26.295722686941
O       36.446746748697      60.895794226697      27.204766628754
C       36.932239179619      61.331389991509      25.986366893623
C       35.856545597278      58.796046714203      26.625348936599
O       36.942494126238      58.399649810907      26.035658214221
H       35.865835345634      61.518034634642      27.601274279818
H       38.791048617173      62.224223329166      24.381410296588
H       38.558614546403      57.345306764186      24.453746896673
H       40.741866314818      60.912641640179      23.173685428782
H       40.549017034577      58.608866961458      23.223446698117
H       35.573638689421      56.929579496522      27.487943122436
H       36.387910561525      58.087456996972      28.360528432105
H       34.742723190769      58.305754509971      28.381368471959
21
Properties=species:S:1:pos:R:3 frame=12 pbc="F F F" comment="synthetic demo geometry, see scripts/make_demo_data.py"
C       37.028161795544      61.893612261842      24.771794866999
C       35.587806409351      59.773917703732      26.019145063354
C       35.646953207729      61.749995984067      24.523834342506
C       34.882629235170      60.745049019771      25.238195068115
C       39.119356351770      56.889849213199      26.800897499983
C       37.629941204801      60.715858271823      25.371983174011
C       37.032681460329      59.631942328378      25.997973181755
O       39.708061955044      61.634918438524      25.168088396578
O       39.640493395256      59.170685478884      27.228443640449
O       39.902255817859      59.592073533776      25.289167259340
C       39.104723596158      60.753485276771      25.394061398120
C       38.707208224192      58.319310610453      26.914895615065
O       37.491116102819      58.513467266128      26.526032585960
H       40.803058771345      59.696735755604      25.303216454447
H       37.497310878707      62.586750923586      24.218061223495
H       35.181727207240      58.979181682781      26.497127278215
H       34.990702824159      62.494650076958      23.857560335924
H       33.936536314235      60.712490873327      24.876376805010
H       38.233943587457      56.303006625281      27.473063947408
H       38.871056826927      56.477671888097      25.859794875932
H       40.048795771531      56.835966044989      27.046649872596
21
Properties=species:S:1:pos:R:3 frame=13 pbc="F F F" comment="synthetic demo geometry, see scripts/make_demo_data.py"
C       36.638512500875      57.384258550934      25.699843046442
C       35.947014360147      59.738624329708      24.227645842859
C       35.566205353760      57.432488842875      24.838652328193
C       35.299249140314      58.487551670002      23.983759571376
C       38.833900045047      62.658749606719      26.341482580579
C       37.243861832379      58.637705808642      26.003459049808
C       36.877872995593      59.743847748526      25.332102405179
O       38.859250104106      57.785603567859      27.466122614832
O       39.252269349672      61.278527275134      24.437732266533
O       38.015375328906      59.692861108841      28.153365995580
C       38.103949251541      58.713642108120      27.213157019757
C       38.492658584936      61.649498962934      25.376164203295
O       37.349244756494      61.102881232867      25.616430314133
H       38.664746196174      59.656623848791      28.725449816192
H       36.803195193718      56.439683957782      26.115542313414
H       35.780243373097      60.671642331609      23.771994813026
H       34.934840258938      56.339967497055      24.675425639667
H       34.319391722600      58.604000848726      23.402388213392
H       37.928672192359      63.416015603441      26.284729484773
H       38.739815368698      62.244202209118      27.136830133110
H       39.705261261968      63.042203380220      26.184930831253
21
Properties=species:S:1:pos:R:3 frame=14 pbc="F F F" comment="synthetic demo geometry, see scripts/make_demo_data.py"
C       37.743422351451      62.079802753208      26.460086020449
C       35.729408839798      60.753792535695      24.948414117034
C       36.775183050393      62.737064546321      25.854328153813
C       35.740419749573      62.173406254737      25.105941987277
C       37.304210594000      56.428505784286      25.326726640408
C       37.773074959623      60.655866958697      26.284554610829
C       36.925319622314      60.031872706813      25.453405872127
O       39.347154323421      60.020857641852      27.814255971599
O       35.538724083149      57.557840190672      26.379360482714
O       39.930279295209      59.407361723109      25.813077345308
C       39.086444782941      59.918295253413      26.669654486223
C       36.579815870556      57.595721059753      25.654560074716
O       37.009485391201      58.792553343330      25.103765421980
H       40.714469880609      58.712684916559      26.233791060310
H       38.441847826341      62.738089199687      26.979937905166
H       35.059901803510      60.152556366479      24.559055978059
H       36.742427319145      64.110691927389      25.976839321054
H       35.073071476520      62.658770100017      24.600257419449
H       37.154213830604      56.375919010261      24.160507407385
H       38.405812369634      56.606317331111      25.544935947973
H       36.785171958280      55.689728967887      25.827909169350
21
Properties=species:S:1:pos:R:3 frame=15 pbc="F F F" comment="synthetic demo geometry, see scripts/make_demo_data.py"
C       39.481990972726      58.961142178424      24.766924124089
C       36.751578458663      59.391290135615      23.899713301383
C       38.988270483502      58.525534746860      23.570789551080
C       37.662687257474      58.826934740917      22.993719129220
C       34.997474452152      61.093052489182      27.755051266996
C       38.277062020218      59.348095010464      25.586559770279
C       37.109623509407      59.632816052896      25.192360499879
O       39.911531795990      59.703330355338      27.362560334083
O       35.993061009515      62.264952810945      26.052237594710
O       37.870555940073      59.275211075158      28.099392702092
C       38.734305798455      59.534971712727      26.991856677764
C       35.756137843899      61.119504909971      26.510099985128
O       36.127519197926      59.958271843864      26.030318711702
H       38.243211373129      59.291056905313      28.948969761449
H       40.387387503720      58.673139661340      25.064246086906
H       35.643290894464      59.695542430902      23.680384579488
H       39.782123333105      58.099148526119      22.724328211206
H       37.271369634167      58.465366312723      22.166943798147
H       34.085838703085      60.418060831268      27.577325709218
H       35.545660826016      60.636075672739      28.609792886521
H       34.887881696993      62.024910883775      28.199204351142
21
Properties=species:S:1:pos:R:3 frame=16 pbc="F F F" comment="synthetic demo geometry, see scripts/make_demo_data.py"
C       37.615755390524      62.246662862002      25.862921931347
C       36.745187790094      60.324244956302      27.824459381604
C       36.781734160737      62.630912673679      26.902496075045
C       36.333708331447      61.694042852302      28.017225410806
C       37.732391245201      56.535393503227      25.230647217913
C       37.704406275535      60.895939724428      25.673367634279
C       37.303862437357      59.891283331926      26.560539923132
O       39.160824376635      60.943774899727      23.839467014465
O       39.489783114177      58.069804930068      25.784680099792
O       37.632875179524      59.457144342833      23.521973713561
C       38.302888609477      60.392455522951      24.303319571707
C       38.270511280127      57.782277341949      25.796337105590
O       37.412883841167      58.605110538497      26.339270024780
H       38.032870798760      59.201869511464      22.720267186286
H       37.778847084063      63.121376899894      25.137196260034
H       36.603218011452      59.604141166516      28.390135068001
H       36.465910232185      63.934728894841      26.996289284041
H       35.908237453253      62.070574338579      28.762371250836
H       37.169596249912      56.112893175869      26.016223728441
H       36.843297675101      56.791548589381      24.597159612553
H       38.434028701099      56.064594252141      24.814546923841
21
Properties=species:S:1:pos:R:3 frame=17 pbc="F F F" comment="synthetic demo geometry, see scripts/make_demo_data.py"
C       37.605317605973      58.475697689396      27.867639518789
C       35.565664701094      58.927057556743      26.043043884182
C       36.349191021204      58.179583593235      28.224521126567
C       35.301192788546      58.237206704248      27.205603053704
C       37.820264755576      61.432795689652      22.870956634650
C       37.738080387387      59.295006415009      26.670155859868
C       36.744097584800      59.528982620550      25.803500934093
O       40.047813770295      59.406873437494      26.650930624352
O       37.366417049081      59.046197837854      22.985983077494
O       39.162430819406      61.462354269278      26.634883446111
C       39.065097568355      60.081021476424      26.616256716171
C       37.350081406099      60.127629687337      23.483736394595
O       36.865412568388      60.371111690094      24.773644126512
H       40.065818721844      61.747925634895      26.495175829125
H       38.275551226921      58.365660753161      28.568448676642
H       34.995611686980      59.089705069409      25.218352452128
H       36.043967398727      57.497324498447      29.393047953655
H       34.303610691811      57.910683970138      27.476855598747
H       37.083854274038      62.176587961718      22.791581631595
H       38.564976563235      61.797736378897      23.578554957691
H       38.220307836763      61.129338680909      21.924186429768
21
Properties=species:S:1:pos:R:3 frame=18 pbc="F F F" comment="synthetic demo geometry, see scripts/make_demo_data.py"
C       36.499367167328      58.801149946750      23.740606752659
C       37.938309756405      61.288951800609      24.364572212654
C       36.415633876473      59.932543917965      22.959062014313
C       37.174312111502      61.117625857371      23.176655536254
C       38.927527762292      60.235086145554      28.783191043450
C       37.230541408154      59.073976494930      24.934667571319
C       37.801747226047      60.204492201079      25.342143249033
O       37.086077829410      56.859066591648      25.655601051295
O       39.603039799481      58.653538229997      27.132943542544
O       36.749805170673      58.218639834640      27.352664497072
C       36.956380963849      57.939296729382      26.088202333372
C       39.022443383859      59.792277310181      27.376280631341
O       38.379236630442      60.502570777823      26.415427090860
H       36.783469629257      57.444118164619      27.765465339592
H       35.942542137453      58.029168347184      23.572410625691
H       38.404470865197      62.025278339759      24.675735313575
H       35.773776215537      59.968366834198      21.752941282740
H       36.894876391982      62.044413432477      22.398294048271
H       39.341005674219      61.328495926224      28.774570171399
H       37.946677040327      60.409493788464      29.101002847047
H       39.414820223337      59.577000470335      29.458751106390
21
Properties=species:S:1:pos:R:3 frame=19 pbc="F F F" comment="synthetic demo geometry, see scripts/make_demo_data.py"
C       38.255455564581      60.757784062763      23.646366860655
C       35.719148055703      59.376759029365      24.395792492442
C       37.375115772989      60.367781231579      22.644029974822
C       36.059404209878      59.799354872312      23.061203926670
C       36.674105189269      58.643336209835      28.838541328820
C       37.989185507321      60.233462776261      24.943669019949
C       36.816094719439      59.515781717822      25.341048284720
O       39.956846555520      61.223929886654      25.790659719969
O       35.757579820564      60.595918097440      27.837127965499
O       39.358943818847      59.424957335249      26.894845600880
C       39.182930993733      60.347255841273      25.955821879708
C       36.268594091551      59.499420143617      27.667827223129
O       36.547705578295      58.981060326216      26.475619391504
H       40.070156413952      59.671608483934      27.514502305673
H       39.117167099414      61.196486647483      23.302324420076
H       35.120669108053      58.962500711531      24.650060474687
H       37.434141235703      60.708093787980      21.444079290342
H       35.480588491876      59.605716746621      22.103375379945
H       36.270974435086      57.751483501338      28.790190673148
H       37.652859742066      58.355303126475      28.754177498834
H       36.611840680107      59.078234671293      29.649986102161
21
Properties=species:S:1:pos:R:3 frame=20 pbc="F F F" comment="synthetic demo geometry, see scripts/make_demo_data.py"
C       36.363480246139      61.312233812373      24.309944963350
C       36.928266089067      61.190402621202      27.065000212855
C       35.670693953108      62.230801485189      25.154370172529
C       36.111036587896      62.248181193657      26.534686935174
C       39.171949497733      57.237040302429      26.951183298065
C       37.000057962003      60.275821728770      24.876361585770
C       37.303573842293      60.229908193325      26.132726240022
O       37.811112498310      59.369419629795      22.781184401390
O       40.063405904355      59.276313426808      26.169347055860
O       36.956625293513      57.818435237008      24.155052571061
C       37.359894125078      59.206338687925      23.893816808281
C       39.164957811744      58.641871794044      26.645648469658
O       37.918987086356      59.221322379477      26.792876074703
H       37.271264294522      57.079479516458      23.635986003807
H       35.969833593882      61.565679699999      23.239572866063
H       37.202815481069      61.088670386131      27.903987772327
H       34.841309658977      63.137739190353      24.682108213565
H       35.663015877926      62.937945241026      27.192565840547
H       38.817029384819      57.191511386712      28.100506513066
H       38.451675747350      56.723547908531      26.322423787540
H       40.232198675981      56.934590415454      26.818247034227
21
Properties=species:S:1:pos:R:3 frame=21 pbc="F F F" comment="synthetic demo geometry, see scripts/make_demo_data.py"
C       36.235458287297      61.657890720112      26.771741798787
C       38.646605902707      61.354659000764      25.370664484434
C       37.118910767942      62.638860240961      26.782428877225
C       38.304511438476      62.614296597325      25.935777728712
C       38.404383122143      56.860520388819      24.408301703861
C       36.731271877768      60.277335181642      26.334761099039
C       37.838503552002      60.247072303525      25.667450224929
O       34.630262468989      59.249022228108      26.758249749562
O       37.236119728552      58.526694578335      23.298982149734
O       36.520371401542      58.014095117375      27.021916061929
C       35.871231040003      59.166924712747      26.657917454769
C       37.945188784721      58.219073430179      24.301108461388
O       38.371968909936      59.046953463644      25.230373229341
H       35.857488365232      57.362447597903      27.083862709940
H       35.493818753095      61.758186482214      27.314547725924
H       39.435737985842      61.132752854044      24.683609723835
H       36.796637190708      63.794169954144      27.352513056886
H       38.929193049899      63.363934168649      26.168142722369
H       39.455073576630      56.860953673155      24.582193339934
H       38.153896531149      56.458190923802      25.438810401211
H       38.045343188398      56.300523801223      23.854773842443
21
Properties=species:S:1:pos:R:3 frame=22 pbc="F F F" comment="synthetic demo geometry, see scripts/make_demo_data.py"
C       35.217428349436      58.912875260398      26.588816363270
C       36.046334127382      61.358690046912      25.280557066619
C       34.419703506288      60.072076702072      26.527331438300
C       34.803889674928      61.160463303010      25.797504537280
C       40.433676715476      60.329301116195      24.575472769316
C       36.553335301120      59.218202109140      26.239978664394
C       36.945259112433      60.372817600083      25.635766795626
O       37.471866644908      57.043980093108      26.263975930153
O       38.506682693735      60.108512689003      23.212129328427
O       38.547378279362      58.402695421385      27.553714183940
C       37.610818827850      58.130099744809      26.652400784006
C       39.054201557984      60.382249936629      24.243532831911
O       38.241436005196      60.664933501375      25.339312192516
H       39.135615614547      57.697548188079      27.701048904229
H       34.850964532058      58.149239782482      27.127522044752
H       36.428586607781      62.132630420761      24.778548204486
H       33.216244659854      59.951734189576      27.055396287725
H       33.976730748034      61.956160510519      25.896568298979
H       40.758854935016      61.342123352407      24.849276977409
H       40.567055077376      59.636791805689      25.313148860669
H       40.775825637813      60.016369706040      23.590583525994
21
Properties=species:S:1:pos:R:3 frame=23 pbc="F F F" comment="synthetic demo geometry, see scripts/make_demo_data.py"
C       38.317129956078      59.447193795936      28.108322008469
C       38.151744783213      57.659029966518      25.928518839195
C       38.378738326864      58.225345686579      28.304913385875
C       38.406682693096      57.190271102869      27.241891628232
C       36.331238126649      60.645965995266      22.852574855854
C       37.916500896131      59.883642811352      26.802393496260
C       37.849076041780      58.995281373082      25.777252269631
O       38.261680985749      62.215135822258      26.976658097683
O       38.290112061572      61.392757181193      23.954258771284
O       36.263168618667      61.710235808437      26.290295730764
C       37.474730814553      61.338852544121      26.586728409288
C       37.451093942280      60.499741219136      23.826646522449
O       37.335610834577      59.328977828013      24.465905860947
H       36.133038923233      62.623230366811      26.263367447681
H       38.444569139208      60.072034245417      28.988725030924
H       38.129021857036      57.087410198674      25.017845432401
H       38.543385283077      57.710111853435      29.537543219345
H       38.362733183976      56.184824088852      27.561545077347
H       36.444588391477      59.826775244418      22.205504570474
H       35.306881124335      60.525874627644      23.410192088002
H       36.281161831651      61.577436686157      22.467072029903
21
Properties=species:S:1:pos:R:3 frame=24 pbc="F F F" comment="synthetic demo geometry, see scripts/make_demo_data.py"
C       37.437946959292      60.708899891019      23.553740780120
C       38.413683792948      58.338479041754      24.586812262763
C       38.223178247798      60.006504455124      22.748687408033
C       38.667266407432      58.712709351299      23.240238494690
C       36.983507086854      58.965138968662      28.978677498553
C       37.298223428210      60.448495284306      24.926344463335
C       37.849366162267      59.348892408672      25.439016779223
O       35.826597804123      62.221796418164      25.317549752313
O       35.657161376030      58.186042625851      27.145153285108
O       37.253876205374      61.765101610866      26.978557002687
C       36.756708282531      61.528185501546      25.778224004136
C       36.669784141714      58.692101899228      27.560077823155
O       37.804512205199      58.992348953535      26.798450331627
H       36.660810413381      62.421251695766      27.488061090337
H       37.131996592404      61.649966297399      22.928976598143
H       38.564135399067      57.500284936243      25.224301912705
H       38.507643327113      60.201660306802      21.567847384288
H       39.403807040656      58.115871532114      22.761586364507
H       38.000798317089      58.375569973964      29.383396828549
H       37.339048074952      60.041205608489      28.981924171909
H       36.134222839181      58.802816650971      29.504553409866
21
Properties=species:S:1:pos:R:3 frame=25 pbc="F F F" comment="synthetic demo geometry, see scripts/make_demo_data.py"
C       39.724923207378      59.622129786706      25.223822976255
C       37.456163688539      61.111260119626      24.331943425173
C       39.845301813506      60.397313080915      24.222642635503
C       38.747369694527      61.273113237904      23.759652523712
C       34.210064869709      59.612142929008      27.052952187266
C       38.461913468182      59.361306086113      25.807092243537
C       37.287202589189      60.049333405969      25.271983166825
O       39.226510230734      57.952878764260      27.405507436314
O       35.270316006005      61.672356183826      26.735851256398
O       37.179603764340      57.462232807455      26.741295184679
C       38.255164882866      58.282634460639      26.697277760601
C       35.276138575509      60.516929656737      26.496197501329
O       36.049713561221      59.802003859310      25.652115263698
H       37.113519366976      56.777851470064      27.488674175624
H       40.575556273516      59.228383505017      25.491194843001
H       36.580307650752      61.550137957749      24.203698669635
H       40.990320081557      60.639680811202      23.665915234347
H       38.896787814527      61.893161842823      22.892470162299
H       33.626349941563      59.268364577778      26.344504919551
H       34.740640082352      58.757020730330      27.577496526649
H       33.800576563164      60.067572472034      27.672591486332
21
Properties=species:S:1:pos:R:3 frame=26 pbc="F F F" comment="synthetic demo geometry, see scripts/make_demo_data.py"
C       38.648749960448      60.973522775337      24.147841303507
C       36.910576030442      58.737822193937      24.021943694618
C       38.662880952515      60.222435591613      23.047490345120
C       37.620275639438      59.099283977603      22.860295366976
C       35.435329804260      58.773371607521      28.318972608382
C       38.038075016690      60.470241521029      25.300624383467
C       37.269738118716      59.429283164147      25.338091808977
O       38.610964276262      62.342668527513      26.615968137367
O       34.446969620465      59.464384749926      26.333033920940
O       38.705893603262      60.444462363053      27.684000996659
C       38.359265829751      61.211205209312      26.616566369195
C       35.424519493370      59.083467603330      26.885254055223
O       36.632151742567      58.906439001939      26.444463969500
H       38.854386780019      61.000434707562      28.391459152533
H       39.341356110987      61.767614753189      24.080702362200
H       36.195824633574      57.938070259060      24.158822426411
H       39.248523367987      60.406386819101      21.908411016283
H       37.767304252118      58.574617212111      21.952914365821
H       35.618932429632      57.623118954406      28.501469618093
H       36.310637002798      59.325485937169      28.792619130392
H       34.433300595238      58.912809948370      28.743499246444
21
Properties=species:S:1:pos:R:3 frame=27 pbc="F F F" comment="synthetic demo geometry, see scripts/make_demo_data.py"
C       35.865614133571      58.021867527613      25.405383517788
C       35.886143727331      60.858683288452      24.944768634038
C       34.655577182480      58.713514223170      25.065307659653
C       34.719922779205      60.047487774321      24.700449167745
C       40.136993166907      61.647399242424      26.537034214731
C       36.976068385648      58.880553607405      25.710366905845
C       36.992454926953      60.159762905997      25.525702311119
O       38.409222345469      57.052121013002      26.042077002932
O       39.682728808825      60.897806947114      24.283820949864
O       38.742196866713      58.612105920459      27.607887811644
C       38.079391704992      58.184503794310      26.426159719771
C       39.256382379055      61.215733238673      25.511033582893
O       37.982302989358      61.026090621139      25.945285505112
H       39.477061571354      58.125234150159      27.765106166491
H       35.640874739894      56.926122102798      25.593194547379
H       36.077849275958      61.946872447017      24.839278008420
H       33.643981939413      58.025296381817      24.716482444018
H       33.870723461213      60.488790994405      24.483959896802
H       39.688108352520      62.756424651959      26.793020220698
H       40.191520481843      61.059711045344      27.303275785484
H       41.231793397846      61.724132092440      26.085556613329
21
Properties=species:S:1:pos:R:3 frame=28 pbc="F F F" comment="synthetic demo geometry, see scripts/make_demo_data.py"
C       36.462259590250      62.019415534667      25.234448448393
C       38.494347031936      61.099795276989      27.059512170614
C       36.989080445206      62.872785126431      26.238297872327
C       38.126543141367      62.476236486056      26.984683768489
C       38.382406463590      56.721856972929      25.874511953494
C       36.720727690806      60.765726692459      25.415474418203
C       37.687026998567      60.263269353904      26.262650301167
O       35.879225961346      59.798621669626      23.471706148061
O       39.791402912627      58.451846449857      25.126599026607
O       34.864337046158      59.007786839369      25.212374079988
C       35.866115061659      59.690803002402      24.538462337808
C       38.794938447740      58.078296997572      25.770552433469
O       37.994098570270      58.899254558087      26.462072838096
H       34.488202444751      58.394414939111      24.701515428964
H       35.688536050538      62.586146339354      24.665716490424
H       39.232490991119      60.684254545423      27.514393345972
H       36.622437353171      64.013256852615      26.307327480916
H       38.409074512007      63.127303279772      27.677734321356
H       38.213323732564      56.344140631708      26.976707280657
H       37.486204593103      56.717629611632      25.636902834194
H       39.062796038329      56.138672144902      25.267562362252
21
Properties=species:S:1:pos:R:3 frame=29 pbc="F F F" comment="synthetic demo geometry, see scripts/make_demo_data.py"
C       37.943344841856      60.206903948589      23.358928790811
C       35.776748061151      59.089671189319      24.627615385003
C       37.079752605164      59.491700107819      22.649064583807
C       35.840462667563      59.069101886361      23.277539487764
C       37.240081385293      59.422031815655      29.081846681197
C       37.821523312409      60.113783858768      24.875924685935
C       36.811524469753      59.530757645461      25.425085329472
O       39.579197055594      61.552003603542      25.350755868878
O       36.697362410931      61.362533379752      27.738178987275
O       39.690155381871      59.725337486616      26.466153015420
C       39.051140783423      60.516083366024      25.569408650068
C       36.770555563391      60.136497928571      27.749017118886
O       36.726851053688      59.317967459915      26.706535933335
H       40.468573358576      60.127221500466      27.050282931838
H       38.832226997457      60.637161274363      22.810115942748
H       35.028518520782      58.660376816078      25.306619885149
H       37.145758342371      59.538179758791      21.403481717361
H       35.256295518378      58.321037244595      22.653593260341
H       36.366151009527      58.624861315025      29.220295804051
H       38.000112858087      58.837709361799      28.798778917675
H       37.490130079402      60.187783847499      29.704345741660
21
Properties=species:S:1:pos:R:3 frame=30 pbc="F F F" comment="synthetic demo geometry, see scripts/make_demo_data.py"
C       36.586478896406      57.586786309121      26.632364566766
C       35.535600780677      59.489434947616      24.839108799189
C       35.270711473166      57.527778502897      26.245482999718
C       34.718330428078      58.439749615149      25.283164135922
C       39.191350312559      62.440818383815      24.973866139889
C       37.319442865784      58.736105943389      26.365562671155
C       36.781294314723      59.829657027255      25.445202235928
O       39.330126485951      58.100428026343      27.188585486121
O       38.978349975579      60.502514706416      23.663049249770
O       38.866359783612      60.116360979476      27.689307075851
C       38.595228304964      58.983573344772      27.051553754316
C       38.544165095219      61.212191465158      24.594804462177
O       37.371118457767      60.952057687907      25.188344121747
H       39.931579162636      60.205644175380      28.031469409103
H       36.837753326515      56.815948735611      27.319860196500
H       35.272806540729      60.335968850424      24.308139746216
H       34.610627031577      56.622544485060      26.628829508221
H       33.762085313560      58.368504075209      25.032422705914
H       38.417334731173      63.389885686225      24.707211225118
H       39.294338919175      62.490067474782      26.048479948927
H       40.082010919638      62.447621435558      24.585931626304
21
Properties=species:S:1:pos:R:3 frame=31 pbc="F F F" comment="synthetic demo geometry, see scripts/make_demo_data.py"
C       36.549179776844      61.831780691201      25.253014186503
C       39.321876142639      61.026086043684      25.185308187696
C       37.463354492193      62.775550815635      25.420192667566
C       38.886982216100      62.460556208190      25.322566782453
C       38.813388182499      56.573757424869      26.335762746544
C       36.945812582279      60.458152262537      25.255963640830
C       38.300822701695      60.060437894620      25.337332404714
O       34.793188301127      59.778547437194      25.517915311226
O       36.953745239323      57.436876540529      25.111909692977
O       36.144752652734      58.179133451748      25.812252483982
C       35.912321292413      59.488700690139      25.460016773659
C       38.089896962454      57.666801915549      25.594611045093
O       38.707031606940      58.853954434668      25.451911955574
H       35.448574071971      57.499610014924      25.833961154233
H       35.485553917451      62.282485793673      25.422631177116
H       40.140463227158      60.709244688055      25.125787620668
H       37.174444505557      63.908931275448      25.578219563003
H       39.500000200228      63.277030684849      25.398233213274
H       39.984149423583      56.550635771234      25.788907836293
H       39.057526232465      57.028353026215      27.249045517881
H       38.218902621998      55.895883336897      26.351122370926
21
Properties=species:S:1:pos:R:3 frame=32 pbc="F F F" comment="synthetic demo geometry, see scripts/make_demo_data.py"
C       38.790044144025      61.669481775189      26.527177080878
C       36.628201134329      60.193394302900      27.718615011491
C       37.972993526530      62.302842190139      27.433911387199
C       36.947233877486      61.503920171902      28.102693430726
C       36.215969770298      56.929471313056      24.461776317802
C       38.320834401254      60.463063031488      26.093262179177
C       37.238721130124      59.777033826971      26.549175061662
O       40.146669956450      60.134355182871      24.639443960086
O       38.543492752562      57.473790126486      25.012074162102
O       38.301291153293      59.468618089107      23.713629527399
C       39.020182049218      59.922471562656      24.859126508608
C       37.330993482284      57.611686905035      25.178558228883
O       36.839560423139      58.546204080853      26.116049415706
H       38.920253965059      59.162009977739      22.954158388864
H       39.463740360501      62.438584249063      26.044594180307
H       35.965154902467      59.630473922754      28.187040999477
H       38.146387964663      63.402596421301      27.870137139406
H       36.413900871976      62.123571988513      28.739425957692
H       35.681719893448      56.536573603496      25.141920383185
H       35.568858112748      57.786206116353      23.906193220162
H       36.807077144744      56.412599760342      23.759086630799
21
Properties=species:S:1:pos:R:3 frame=33 pbc="F F F" comment="synthetic demo geometry, see scripts/make_demo_data.py"
C       37.578718337078      57.896267531212      27.385817623897
C       37.618124589034      60.765127895213      27.544146179440
C       38.040862164229      58.494704183423      28.468634141577
C       37.991808959151      59.939254382539      28.635673338600
C       36.850082065307      61.617898753967      23.059398968055
C       37.375379053751      58.678882760411      26.299750387697
C       37.437363057155      60.046183062259      26.274547728527
O       36.711771102448      56.978548960652      24.830720313300
O       35.182156937707      61.150302285747      24.745095528064
O       37.843692413397      58.520072815481      23.778206367760
C       37.187826417037      58.019118882547      24.968031433322
C       36.413396540673      61.230089700398      24.441752209935
O       37.384414180411      60.881530157522      25.245770247912
H       37.660676237830      57.991507291315      22.982248148631
H       37.660551580400      57.066197084832      27.410780828168
H       37.655802029761      61.800260164542      27.508113851641
H       38.463384410945      57.718977880591      29.453946497937
H       38.575288140465      60.216065557037      29.529236846566
H       37.376617042659      62.488630286057      23.262651864128
H       37.342098412270      60.825077266875      22.786865088093
H       35.855724461158      61.854819387464      22.639272365588
21
Properties=species:S:1:pos:R:3 frame=34 pbc="F F F" comment="synthetic demo geometry, see scripts/make_demo_data.py"
C       38.496036491135      57.433128539169      26.188801936831
C       36.087536269660      58.607466605905      26.998278241867
C       37.826279400749      56.958869737928      27.205533935615
C       36.444046472005      57.311888486048      27.485381308687
C       36.750961229232      62.822975094941      25.040584963825
C       38.141514566347      58.760358143777      25.784999424826
C       36.866809041065      59.328899407560      26.181303577751
O       40.021785219220      58.914231041797      24.355405558434
O       37.110879799066      60.865673178096      23.698729193930
O       39.098741883741      60.954035682258      24.966434946778
C       39.137833760246      59.579718269660      24.953000559349
C       36.808540096554      61.353489121245      24.743696017506
O       36.486602244858      60.577010249359      25.823913721870
H       39.795903534132      61.231002166995      24.283320652902
H       39.544493476788      57.060073087703      26.070584930225
H       35.195072284263      59.067715591877      27.006462292792
H       38.142468994309      55.725341953935      27.734216772836
H       35.979206529125      56.899825722778      28.461563746863
H       35.714902667072      62.936685921153      25.459877382923
H       37.378215338993      62.963657482646      25.835376508643
H       37.027544651733      63.111678965462      24.143335495812
21
Properties=species:S:1:pos:R:3 frame=35 pbc="F F F" comment="synthetic demo geometry, see scripts/make_demo_data.py"
C       37.651431815466      57.711176282488      24.432227830905
C       39.411800232104      58.935124916721      26.323946357645
C       39.044280439858      57.391151387265      24.461896605177
C       39.821683184319      57.991220640925      25.446841041152
C       36.522539966181      62.453521769205      27.483319579761
C       37.259022613228      58.862685917519      25.262979512058
C       38.128217389468      59.522197074389      26.111004376790
O       35.179207498378      58.767368951306      24.311497329476
O       35.794467485581      60.251512285893      27.846514198694
O       35.615845619975      60.757195763502      25.199709957402
C       35.929711054514      59.419170478321      24.938402089342
C       36.658739040148      61.014819175948      27.332243734107
O       37.826385845558      60.617471645104      26.792192677728
H       34.733163155555      61.056237458873      24.919457709594
H       37.068453203979      57.277952185306      23.579314520183
H       39.870186134001      59.552451356360      27.097009443378
H       39.517498265548      56.485035025850      23.778363785082
H       40.758748583519      57.659792002606      25.421073283750
H       37.467626334397      62.644509134459      28.142066741576
H       36.702493525539      62.850195677018      26.503473430351
H       35.711271257578      62.675363044835      27.791425634210
21
Properties=species:S:1:pos:R:3 frame=36 pbc="F F F" comment="synthetic demo geometry, see scripts/make_demo_data.py"
C       39.631456688578      60.293518615044      25.006518026750
C       38.156019303968      57.868158981356      25.074206042979
C       40.238042750149      59.033203329712      24.689544748702
C       39.424396453194      57.746112201224      24.620853377064
C       34.439799726380      59.742329782697      27.278368364173
C       38.397415523171      60.221007161981      25.489072295768
C       37.591519418338      59.150241396888      25.665966165563
O       38.165127263709      62.523290635625      25.604772211538
O       35.053330213742      60.537705209648      25.042286613597
O       37.321730389197      61.476625230356      27.384493015210
C       37.870827718199      61.495905131843      26.240470970752
C       35.286696447320      59.779929802170      26.108020277293
O       36.424353513333      58.947170984005      26.170547473351
H       37.015338261304      62.317712471822      27.692559738191
H       40.308098777241      61.012767204532      24.990751908971
H       37.549694488561      57.264917992087      25.097034502979
H       41.426450097378      58.987599059258      24.449849815921
H       40.047468660816      57.025838785809      24.433976920007
H       33.979952150801      58.667218473540      27.470369258537
H       35.034151036991      59.971909806956      27.875004313497
H       33.793975722138      60.485959522641      27.079781405844
21
Properties=species:S:1:pos:R:3 frame=37 pbc="F F F" comment="synthetic demo geometry, see scripts/make_demo_data.py"
C       35.517293298868      58.581853915842      25.031226619419
C       36.513660408897      59.473935453683      27.564312337958
C       35.042048295295      58.110423891340      26.158065581140
C       35.425605060717      58.567317074046      27.458501729974
C       40.728225593496      60.850732610782      26.188924873372
C       36.767646487971      59.351361833049      25.160365583484
C       37.179823659068      59.696510390113      26.283715169146
O       36.876614744891      60.028495336432      22.951560701421
O       39.107708547427      61.168379518191      24.452223739388
O       38.750439202671      59.148183618738      23.728635095019
C       37.542794838285      59.615541029316      23.913851980489
C       39.321058810313      60.830554521435      25.629145593952
O       38.463574789713      60.341613538643      26.513677726550
H       39.147824976531      59.545398893675      22.837708222555
H       35.070560117989      58.281470766031      24.095007969506
H       36.947928193328      59.912339156917      28.401524576830
H       33.920817627704      57.350195434259      26.296712384132
H       35.066987346063      58.152067303506      28.334035472083
H       40.709339107884      61.662020502140      27.064852595033
H       40.986199681619      59.982188939098      26.578166282748
H       41.239072427660      61.191839948200      25.451354260323
21
Properties=species:S:1:pos:R:3 frame=38 pbc="F F F" comment="synthetic demo geometry, see scripts/make_demo_data.py"
C       35.321629272564      58.621213789058      26.104040319435
C       36.274529504531      61.334180811961      26.340139102099
C       34.590884256073      59.540627644603      26.853999239706
C       34.970040540478      60.936654506787      26.820715736650
C       40.679830901055      60.354343247499      25.078679498337
C       36.701787527412      58.997067579450      25.828647484146
C       37.136773899925      60.272947768390      25.878583922108
O       37.182955869513      57.051185000453      24.634748924124
O       38.948550086688      59.966017000116      23.602398203764
O       38.698412017878      57.630226072706      25.962110598030
C       37.635464954294      57.807538127404      25.414434221960
C       39.259887938597      60.328479426338      24.612655864488
O       38.348592390572      60.744910383071      25.635506988147
H       39.267446268733      56.966418143247      25.515380323825
H       34.870014284343      57.594072661417      26.230339742468
H       36.754869130999      62.160807839120      26.354351598771
H       33.485100040544      59.345554881769      27.320074836363
H       34.522632820192      61.596591549621      27.318446831039
H       40.926445733513      61.448136886620      25.473500002803
H       40.807508886774      59.926476631688      25.897389929254
H       41.290209124363      59.952149009755      24.124581555119
21
Properties=species:S:1:pos:R:3 frame=39 pbc="F F F" comment="synthetic demo geometry, see scripts/make_demo_data.py"
C       36.988243768958      59.082536756864      27.842805361894
C       37.302988202083      57.732373126338      25.475843729320
C       36.273028371518      57.985981031954      27.680654865827
C       36.489606506796      57.098414708230      26.518989198015
C       38.847635590874      61.111934630778      22.897434256730
C       37.591414432007      59.554693157639      26.775935371300
C       37.769916239188      58.929939884875      25.566893267704
O       38.404292401913      61.511645632208      27.986048328764
O       39.612677935646      61.215565715418      25.151760194381
O       37.944308272529      61.993102439878      25.864120489032
C       38.087486384441      61.025242050663      26.885287612937
C       39.068041723141      60.634401912434      24.155240254736
O       38.284764566580      59.506390915483      24.387455567479
H       38.410747279684      62.873654042490      26.119331937896
H       36.804388035549      59.605472530709      28.753182368092
H       37.609951258816      57.301516432315      24.508969031496
H       35.455619292078      57.420813642262      28.543133649858
H       35.840821380175      56.271709284287      26.459695857685
H       39.243664301740      60.361762064813      22.182978793085
H       37.957052507383      61.295660268820      22.656213654917
H       39.214104702454      61.982054431387      22.963158022132
21
Properties=species:S:1:pos:R:3 frame=40 pbc="F F F" comment="synthetic demo geometry, see scripts/make_demo_data.py"
C       37.002248291276      61.530505202015      24.296068695775
C       39.310810907264      59.847235212595      24.381998097046
C       38.151980071390      62.066735157345      23.786720055512
C       39.345007909236      61.160672329295      23.617296908063
C       38.412007374845      57.339004435636      27.962368523117
C       37.062343332774      60.428163974453      25.053541921369
C       38.167291450805      59.643035581656      25.112452508238
O       34.802514166125      60.331697014086      25.577620046309
O       36.450119103874      58.237822419386      27.062649821461
O       35.997266325680      59.676598819835      27.201285963760
C       35.845922967068      60.059013854704      25.964073318981
C       37.573996044640      58.058557025753      26.925772344059
O       38.296715249512      58.505696940323      25.893430992645
H       35.161454211254      59.499826422694      27.766404074883
H       36.197208515831      62.391602276906      24.235256390569
H       40.036327604772      59.332075781778      24.481494040273
H       38.373475515569      63.046975225011      23.014278591114
H       40.407293017957      61.594537106448      23.295904553914
H       38.957267886150      56.437894227330      27.436175696852
H       39.143681060289      57.820791994872      28.178062009194
H       37.883936487424      57.198028199505      28.688581763169
21
Properties=species:S:1:pos:R:3 frame=41 pbc="F F F" comment="synthetic demo geometry, see scripts/make_demo_data.py"
C       35.205404616048      59.170532675493      25.972756146446
C       37.485530082279      58.545837661334      27.643328875251
C       35.083920675906      58.227195822218      26.972227650502
C       36.147893096612      58.016619283364      27.897303589174
C       40.604823158728      60.794725998169      25.021931375805
C       36.432053371035      59.650365730247      25.656952931222
C       37.574154204973      59.324350215744      26.415918760545
O       35.682606206459      61.098038857461      24.031073148777
O       38.864612348289      61.965524300370      26.174672745624
O       37.691934390267      60.187627814557      23.571309054912
C       36.598979030338      60.382466806847      24.392587627732
C       39.426242153490      60.889702199376      25.827103146459
O       38.801943999964      59.708907484754      26.277033386742
H       37.682173647303      60.791973838706      22.832758590704
H       34.388324249467      59.262868504868      25.477902109739
H       38.351449032946      58.398765922031      28.141980182602
H       33.994590968487      57.571723794958      27.175492693875
H       36.145714764733      57.160779678107      28.525733427593
H       41.362856481259      60.240217357355      25.493615469366
H       40.319386441152      60.319206863624      24.156766621529
H       40.758542797218      61.687209833051      24.763236730244
21
Properties=species:S:1:pos:R:3 frame=42 pbc="F F F" comment="synthetic demo geometry, see scripts/make_demo_data.py"
C       39.770704349151      59.772023633442      26.318601715369
C       37.414735105513      59.199442945102      27.789374467002
C       39.848593261168      59.743327803038      27.726255218030
C       38.723369756788      59.295553937621      28.471789951460
C       34.361218231229      59.683077123800      24.446956024317
C       38.462445507811      59.811818766620      25.747814164661
C       37.423038690438      59.634303983828      26.495559400289
O       39.353652992830      60.152278282554      23.627377809034
O       35.702836939805      57.621191342956      24.942201755463
O       37.392330434795      61.016453759322      23.839352491674
C       38.455834200427      60.273390323855      24.380964571803
C       35.440978338759      58.888865442819      25.068404687392
O       36.090711651448      59.697277688254      26.017223287742
H       37.357976481048      61.131566471608      23.062655990769
H       40.569586447231      60.170037349240      25.799326395611
H       36.569936673967      58.854933553157      28.065335608539
H       40.946702386778      59.813178506301      28.435874725007
H       38.847846168862      59.245979371808      29.533179362803
H       33.794867777076      59.996970835504      25.100489740708
H       34.790678694901      60.476895260825      23.751524149728
H       33.974530506811      58.971685758812      23.581899472296
21
Properties=species:S:1:pos:R:3 frame=43 pbc="F F F" comment="synthetic demo geometry, see scripts/make_demo_data.py"
C       39.712099524057      59.593647227198      26.807724901986
C       38.515385526981      61.516957496229      25.162597770407
C       40.545869423423      60.485157110079      26.176877376139
C       39.955799054254      61.593055192846      25.476256191747
C       34.499759583454      59.282146457305      24.609911734349
C       38.520904877394      59.459080976799      26.317047893838
C       37.821864065804      60.348811555459      25.518959648413
O       37.872432323571      57.643158876492      27.834774161798
O       35.216058391609      59.821564134022      26.885119619875
O       37.020209286092      57.463029195483      25.767373980351
C       37.719321396070      58.141059330880      26.771567994380
C       35.410587026630      59.869808258881      25.650723295913
O       36.530954800833      60.365538110631      25.060549015644
H       36.564733580841      56.704309401544      26.170341932139
H       40.233325927463      59.008958744918      27.361332427571
H       37.949889954177      62.112243473698      24.701851849830
H       41.733184799316      60.423265269429      26.419851329266
H       40.435094607515      62.241100157464      24.847002977501
H       34.232655452462      60.165077420406      23.787081847291
H       34.936668252609      58.596111740037      24.068270765809
H       33.670064000078      58.913688773100      25.158580347715
21
Properties=species:S:1:pos:R:3 frame=44 pbc="F F F" comment="synthetic demo geometry, see scripts/make_demo_data.py"
C       35.885430333960      57.955971172863      26.191031879728
C       38.266532089080      58.831966233520      27.443140213482
C       36.413613315164      57.188298677327      27.108059746403
C       37.617645661641      57.613497736760      27.924037729761
C       39.279077002099      62.259751697404      24.464477137080
C       36.658341425238      59.027773343657      25.692239222431
C       37.815628582814      59.508002382985      26.281408069011
O       35.143239154371      59.369685494428      23.929884928594
O       37.415291277426      62.394773395472      26.032348659061
O       36.939244884286      60.416356415232      23.700351204530
C       36.172496089437      59.673699316416      24.388643263693
C       38.425272063912      61.707600369238      25.523804502274
O       38.632629077498      60.392403791563      25.830074194545
H       36.591081866183      60.928417068529      22.844974453586
H       34.901452663426      57.495530140539      25.577886575327
H       39.017036220317      59.257923173285      27.748146285879
H       35.992538797901      56.150607484613      27.559598323354
H       38.077260888658      56.939418917375      28.530112146925
H       40.456669320651      62.273907125320      24.955939474935
H       39.252654241340      61.591228854133      23.616729925084
H       38.999062035654      63.097217051248      24.440808777389
21
Properties=species:S:1:pos:R:3 frame=45 pbc="F F F" comment="synthetic demo geometry, see scripts/make_demo_data.py"
C       36.459946152953      57.617031356246      26.587223172149
C       37.003229081801      60.183566367620      27.582353939963
C       36.530462099016      57.762100223986      27.877256642532
C       36.649163758177      59.096114728122      28.508512602161
C       38.244651204909      62.438111069340      23.861351662565
C       37.009928499099      58.570892934991      25.840663795857
C       37.348866511987      59.827364320303      26.267803781125
O       36.900204882065      57.439910181627      23.753813601742
O       36.273177052583      62.398831928875      25.217738939147
O       38.460460888527      58.784353331573      23.792031275916
C       37.382201449747      58.371275224534      24.397768415188
C       37.425834779567      61.951254640434      24.873984883621
O       37.992004844699      60.906904759671      25.640891707388
H       38.561965093427      58.608339135913      22.811633554234
H       36.394067682589      56.530594145480      26.178147432709
H       37.318737270278      61.049259644421      27.957305027986
H       36.108397901100      56.890640869893      28.788588624816
H       36.612359732800      59.115084860619      29.475777158534
H       39.284262583152      62.752264671101      24.341489942995
H       38.434951409225      61.542617150546      23.119005596227
H       37.697121219134      63.120583920955      23.496683688248
21
Properties=species:S:1:pos:R:3 frame=46 pbc="F F F" comment="synthetic demo geometry, see scripts/make_demo_data.py"
C       39.709915451704      59.979559387974      26.845100007085
C       38.677496387145      58.327519562122      24.667967635887
C       40.416073222462      58.906277982847      26.403196803603
C       40.023039528381      58.096438099156      25.221784156253
C       34.355331039427      59.926746180888      24.673718071677
C       38.390820028493      60.084343318498      26.318078273514
C       37.900901480606      59.354490949650      25.319617208868
O       37.907909710219      62.131850483898      27.420455622535
O       36.119039304827      61.457689911969      24.368772284162
O       36.279283614499      60.718664648200      27.472145381163
C       37.489352354493      61.014258406504      27.020045345629
C       35.798947562911      60.327670630420      24.721351875022
O       36.601324222325      59.315178276012      24.812289160247
H       35.743554235777      61.394394251039      27.845075695977
H       40.116482284163      60.498646215321      27.633428228709
H       38.267046170497      57.804466384219      23.857767021384
H       41.639191277807      58.599943813246      27.017521896260
H       40.626822947453      57.195033677084      24.973144308298
H       34.201790085745      59.093581799127      24.025173638877
H       34.237518939775      59.532488966139      25.617821031047
H       33.858180424675      60.642643228282      24.669511116450
21
Properties=species:S:1:pos:R:3 frame=47 pbc="F F F" comment="synthetic demo geometry, see scripts/make_demo_data.py"
C       36.838658364065      61.641946905268      26.943219358348
C       35.772002784094      59.057473060994      26.991421790666
C       35.566026316996      61.479999231360      27.395311646827
C       35.145024288438      60.158657960919      27.515470553054
C       38.860262462598      57.280477322593      23.917493731911
C       37.472592463511      60.645675415355      26.218132073169
C       36.964390764361      59.417542674308      26.207147720445
O       39.006705892523      62.152186629104      25.373366277679
O       39.743723786045      58.402425602841      25.835076628039
O       39.242952040587      60.110270837119      24.541482910649
C       38.655390927399      61.032055759239      25.443166058656
C       38.763620186583      58.018136142749      25.198325691886
O       37.519042960803      58.347700672338      25.555324325693
H       39.950838319050      60.414508818935      24.190230212786
H       37.243176993223      62.710188785198      26.925676680821
H       35.551729984785      58.020721469741      26.993040817973
H       34.950837890550      62.565065066352      27.858964732985
H       34.170604952107      60.069690195938      27.887366175678
H       38.204870408353      56.345566058652      23.986655717095
H       38.391143693121      57.784779540423      23.113393353093
H       39.767334154427      57.289269830524      23.792341589734
21
Properties=species:S:1:pos:R:3 frame=48 pbc="F F F" comment="synthetic demo geometry, see scripts/make_demo_data.py"
C       36.037845428653      59.324005786892      23.861262122191
C       38.443265995352      58.123589059473      24.622121705217
C       36.766841292300      58.694182901812      22.927040693330
C       37.937639969627      57.956669155521      23.250606663372
C       39.508047151535      60.575464865235      28.345574252660
C       36.683545586723      59.745898203490      25.090701964874
C       37.905896929405      59.042797963900      25.469625660868
O       34.973734623999      60.883557491624      26.088099736168
O       37.186060099132      59.980255888409      28.106605567780
O       36.943340547983      61.716685704649      26.586294089305
C       36.170841534573      60.721344858261      25.998417978802
C       38.326318651209      59.904108928457      27.795166494068
O       38.708505904141      59.324450868355      26.522969339613
H       36.566308124682      62.183298317152      27.150904616377
H       35.150612784525      59.904474952672      23.472226534319
H       39.344924914752      57.651528535994      24.972058510621
H       36.299688572588      58.531648772703      21.822795251624
H       38.370878822283      57.388587539584      22.542592740310
H       40.324006196136      59.642280519693      28.593749776841
H       39.830948419966      61.212619707259      27.755147400530
H       39.173280125478      61.110997887394      29.146139640284
21
Properties=species:S:1:pos:R:3 frame=49 pbc="F F F" comment="synthetic demo geometry, see scripts/make_demo_data.py"
C       36.361075517768      61.462241839950      26.832931834704
C       37.168858312694      60.969320403552      24.164879261668
C       36.378974726502      62.569862307325      26.000930193032
C       36.677393484449      62.235877758291      24.561015492120
C       38.987688749094      56.732141943613      25.069581325870
C       36.943562750098      60.284429436291      26.516274792081
C       37.406646036732      60.033117036626      25.306635896012
O       36.349137443731      58.926440008378      28.355884613090
O       36.591053982383      57.141339602349      25.110885945309
O       38.494481523401      59.064114104613      28.082618814734
C       37.191864121617      59.378915222654      27.594068371309
C       37.814960889359      57.634105937328      24.978107136431
O       38.011980944102      58.891697095810      24.864159641968
H       38.623895067015      58.335125224567      28.709521992562
H       36.056069558944      61.947186577246      27.771919885668
H       37.476972504690      60.495972849089      23.277979578850
H       35.968351040880      63.584063943356      26.178116819091
H       36.724574464783      62.947501115385      23.855969671993
H       39.381669903465      56.899856473239      24.178303581795
H       39.516604582316      57.274481265546      25.948026390710
H       38.484098095058      55.868346191364      25.251300926861
21
Properties=species:S:1:pos:R:3 frame=50 pbc="F F F" comment="synthetic demo geometry, see scripts/make_demo_data.py"
C       35.315933549301      60.121484002720      26.723089232041
C       37.706751557920      61.522680590342      26.914764632808
C       35.472693560574      61.091506256907      27.688211947859
C       36.689599266854      61.874146291694      27.762448834769
C       40.077789587579      58.815114708320      24.041762447672
C       36.388140576123      59.757717444223      26.053175764607
C       37.601136206866      60.331359436991      26.162915589890
O       35.305161185949      58.242103040339      24.657636776102
O       38.519559314456      60.458624946691      23.304457379749
O       37.238072128284      57.493151959638      25.265053560131
C       36.331164399233      58.483141359761      25.175947865305
C       39.087143285329      59.867152275538      24.286824179162
O       38.789199803997      59.982912167836      25.542200215244
H       37.184665464615      56.720257132071      24.800999010229
H       34.341244506556      59.613364001589      26.913282211838
H       38.550452514021      61.895181992213      26.816341608565
H       34.502659515195      61.292754772192      28.471958667705
H       36.679110709792      62.467312940206      28.731320584513
H       41.003850863785      59.148417130660      24.740834491581
H       39.901050793853      57.936385352534      24.534042259109
H       40.198806686822      58.730429450508      23.000554663552
21
Properties=species:S:1:pos:R:3 frame=51 pbc="F F F" comment="synthetic demo geometry, see scripts/make_demo_data.py"
C       37.113676764378      61.834268350810      24.451416074759
C       39.257765759885      60.479795172425      25.809055776719
C       38.341502343399      62.463120417104      24.672483990768
C       39.453822177122      61.760453657725      25.252791141575
C       36.858499453468      56.779262953824      27.183687480709
C       36.937692509507      60.630246029120      25.153447744506
C       37.905889620251      60.009762693868      25.850697686536
O       34.770648219734      60.453615371892      24.275698578736
O       37.987676380301      57.078462597334      25.139585968399
O       34.929084586954      59.556382843128      26.236882521122
C       35.539914003022      60.154486517101      25.240188569596
C       37.610534933181      57.673330429952      26.220102935424
O       37.729199484715      58.831329284165      26.485239558605
H       34.021709885494      59.218071877684      26.037814948980
H       36.375635329633      62.401804646247      24.158228754483
H       39.825897475808      59.927142969928      26.415039413048
H       38.578229708417      63.647183468415      24.194410663711
H       40.376910748379      62.442794629060      25.450213042128
H       37.385514153515      56.907042125497      28.223524590880
H       35.891429018837      57.195255474074      27.233738556570
H       36.636068380759      55.911922134516      26.648778650941
21
Properties=species:S:1:pos:R:3 frame=52 pbc="F F F" comment="synthetic demo geometry, see scripts/make_demo_data.py"
C       37.601816765113      58.523998402103      27.921892240739
C       39.612287922783      59.601674693186      26.296225911564
C       38.917612353727      58.163082308695      28.110153884069
C       39.950159733894      58.738458261661      27.445667583309
C       36.720488278894      61.081317768054      22.966833994374
C       37.285728873988      59.167517630402      26.809695520266
C       38.260820040957      59.643790954317      25.986373625155
O       35.044184889911      58.962778263855      27.238643268513
O       36.446511332193      61.976248317561      25.140814921747
O       35.459700682955      59.407654333034      25.078202368011
C       35.888353099358      59.307650385391      26.418695767631
C       37.073247799957      61.146533938083      24.369103247587
O       38.059282275063      60.295056341346      24.717108431491
H       34.479702409145      59.499836598405      24.944240408557
H       37.030492657122      57.966052354467      28.553801292634
H       40.187176422509      60.067238539125      25.559363962183
H       39.199712411076      57.384660807672      29.079224295060
H       40.995732883077      58.487667011266      27.551132279716
H       37.631426096933      61.223797718563      22.341059971671
H       36.442070844458      60.082738819705      22.718960334016
H       35.988281545457      61.740850584231      22.852300604554
21
Properties=species:S:1:pos:R:3 frame=53 pbc="F F F" comment="synthetic demo geometry, see scripts/make_demo_data.py"
C       35.212205144031      59.745146229700      27.097299300104
C       36.704400451222      57.915377693621      25.460638048140
C       34.571859608816      58.601567048747      26.719915405576
C       35.409586646370      57.479144346299      26.044596383263
C       40.254936199843      60.611847148180      24.437988617623
C       36.353629220810      60.129227743147      26.402645871553
C       37.110294905016      59.323916062988      25.601292583355
O       36.397614821906      62.215127861763      27.446927950234
O       39.965750626112      58.836933420602      26.028322499268
O       37.275996769221      62.301280012145      25.327501495811
C       36.755942269767      61.577025861104      26.457808673056
C       39.527068762556      59.633171680005      25.135099317361
O       38.196796242714      59.637355542364      24.874242469747
H       37.469245739708      63.166372874396      25.653890667222
H       34.542641518725      60.368884720662      27.448568970426
H       37.412245052628      57.442603956322      24.859598434075
H       33.504608381269      58.312104718999      27.225367039085
H       35.067861463867      56.720093726373      25.715493877332
H       40.140349465742      60.303506381625      23.201588444456
H       39.745117837522      61.543895335748      24.587226679615
H       41.249039525702      60.436914928125      25.076410699023
21
Properties=species:S:1:pos:R:3 frame=54 pbc="F F F" comment="synthetic demo geometry, see scripts/make_demo_data.py"
C       39.618000702011      60.272190778366      26.616132446437
C       38.613430487901      58.145584756914      24.954354325259
C       40.319772125845      59.129848088157      26.412811919173
C       39.916637585157      58.136199323970      25.408219722678
C       34.209066541922      59.533794383424      25.034263853001
C       38.272491430026      60.130410795756      26.282322487246
C       37.708103238964      59.187632404588      25.458325435875
O       37.802516091103      62.266473866208      27.016456237045
O       35.866634630829      60.865708881760      23.988024574023
O       36.142856490182      60.882762859881      27.299605678164
C       37.352558586755      61.194059233922      26.799959238752
C       35.501347029160      59.869806798552      24.705587912835
O       36.450872976285      58.987854941647      25.138353163988
H       35.691826314638      61.631395538931      27.552710632111
H       40.052093415290      60.751328931104      27.326834232354
H       38.098286594607      57.574627008595      24.384133212655
H       41.563738337781      59.017748594152      26.749768464263
H       40.529254094224      57.174924621028      25.281352084158
H       33.918838099779      58.439010456791      24.677147080812
H       34.161240898403      59.543960734140      25.962358418517
H       33.515544931643      60.356008515126      24.637672502318
21
Properties=species:S:1:pos:R:3 frame=55 pbc="F F F" comment="synthetic demo geometry, see scripts/make_demo_data.py"
C       39.585734799262      59.289090598596      24.804461820842
C       37.468609473643      57.548288554645      25.529915422411
C       39.836827225051      57.999515784779      24.888951925994
C       38.708663107047      57.029243313266      25.148877134785
C       34.625705939237      60.865280776902      27.210820221619
C       38.398087708923      59.670785847641      25.373077534800
C       37.353562900333      58.949346870410      25.674725608167
O       38.675627770304      62.057856203169      24.748591244629
O       35.298510047229      60.863135423439      24.834692443018
O       38.092836369478      61.745725211268      26.857315636101
C       38.306038932308      61.236881602878      25.618391140233
C       35.336714495590      60.354432311698      26.019095969911
O       36.258624295161      59.375491063990      26.333731745958
H       37.966497129250      62.744993243298      26.987096193507
H       40.518130007088      59.809928315697      24.594597117680
H       36.570630165941      57.113059568594      25.853135166661
H       40.900282384990      57.313104459170      24.485371238530
H       39.037084177249      56.035932564710      25.264374562168
H       34.017832218248      60.077732454167      27.559303205213
H       35.332685925312      61.152348573192      28.049943343369
H       34.152623792364      61.806916037068      26.890315525675
21
Properties=species:S:1:pos:R:3 frame=56 pbc="F F F" comment="synthetic demo geometry, see scripts/make_demo_data.py"
C       36.527347888008      61.728200366710      25.024425363664
C       38.362324717659      61.103524961179      26.974441247455
C       36.810765735304      62.683116173989      25.970268006566
C       37.868823629169      62.352738633095      26.877783899734
C       38.350863737805      56.505831617593      26.121706872052
C       36.918010493280      60.442310093639      25.166072186828
C       37.775054911812      60.099141230292      26.211728645673
O       35.953953620256      59.664769491948      23.269770478340
O       39.391083986964      58.109311375068      24.752819038114
O       35.895225064163      58.212147963297      24.862922172878
C       36.272513520602      59.406984375963      24.360193911126
C       38.688349019952      57.958892597856      25.709879380388
O       38.145304504759      58.799720288870      26.511010532935
H       35.623973059657      57.540765696869      24.086377001398
H       35.747762620352      62.188567539251      24.128704923179
H       39.062035862551      60.729127287771      27.748606099367
H       36.334994341904      63.700161544625      25.904293693455
H       37.990675377161      63.078766544527      27.689107640446
H       38.840705857975      56.464037348511      27.448665219792
H       37.268526456478      56.357228886925      26.312695372430
H       38.760088337277      55.899432661079      25.336662837428
21
Properties=species:S:1:pos:R:3 frame=57 pbc="F F F" comment="synthetic demo geometry, see scripts/make_demo_data.py"
C       35.569571332063      58.378926758113      26.651356895708
C       36.034664768075      61.182198582416      26.460197742909
C       34.795418805804      59.234702103418      27.391363832164
C       34.883076808197      60.711733916717      27.289477524428
C       40.213851905815      60.959563624020      24.429887416304
C       36.722632911332      58.943265347462      26.024457564536
C       36.941698091446      60.316587884385      25.919958723683
O       37.470282001315      56.998907395155      25.032275404440
O       38.206138016758      60.143380221703      23.195816466539
O       39.040000773730      58.055663162931      25.902146369732
C       37.707027360975      57.951527552946      25.527363892259
C       38.717167532293      60.643999575253      24.295411076111
O       38.038383350762      60.911281284014      25.475734737187
H       39.637825359197      57.380654048728      25.725091761078
H       35.332067883889      57.433132947432      26.848758983594
H       36.140946990728      62.231681190225      26.204744711285
H       33.715647748424      58.901642929741      28.038341298328
H       34.247770440796      61.357167766336      27.836142526492
H       40.199408665054      62.056247008990      24.645397531408
H       40.669960398464      60.407120226323      25.114018720045
H       40.619506960861      60.683144841112      23.486088823697
21
Properties=species:S:1:pos:R:3 frame=58 pbc="F F F" comment="synthetic demo geometry, see scripts/make_demo_data.py"
C       38.636074255888      61.265589721986      27.097476939677
C       35.941723538060      60.395878702832      26.924083373659
C       37.754959928918      61.953352222918      27.727655367071
C       36.317746273585      61.469021586771      27.883329043044
C       36.402010130648      57.445075650551      23.437249819549
C       38.258063622748      60.347550250387      26.076398988085
C       36.871095525401      59.947735416934      25.994348424776
O       40.217748723296      59.482107916748      25.501571963674
O       37.010627380159      56.996377078336      25.684491706426
O       38.928553847128      60.098005908460      23.798728563179
C       39.185789293807      59.935960570693      25.091177617461
C       36.644855423446      57.864993074532      24.796978960499
O       36.363421734102      59.193080789259      25.084694425682
H       39.643096805886      59.700376244732      22.998971380569
H       39.655117850485      61.736853843288      27.171671757831
H       35.206934099494      59.904658772427      26.831745015728
H       37.971696716724      62.889952047585      28.621879175676
H       35.604494554345      62.030952279387      28.403372004616
H       35.556615054054      57.571474240748      23.113299505924
H       37.079175271663      58.054614312643      22.826665593424
H       36.612397362221      56.487398430462      23.265059065925
21
Properties=species:S:1:pos:R:3 frame=59 pbc="F F F" comment="synthetic demo geometry, see scripts/make_demo_data.py"
C       35.760358800707      58.149606262241      26.096436491728
C       36.026872749836      60.888188895240      26.548482497753
C       34.918497088566      58.807649956074      26.932088563546
C       34.958874938243      60.194299386824      27.004726233852
C       40.450570225595      61.212706242603      25.116794586389
C       36.913222222122      58.826550261384      25.729784357056
C       37.084199782843      60.112196503342      25.935681889082
O       37.828364966058      57.103117420930      24.505855067030
O       38.755183920873      60.455839132812      23.568702803172
O       39.380056835364      58.230409917329      25.612435649849
C       38.054854935848      57.971618614320      25.214777808423
C       39.113052799540      60.872446380591      24.697093819294
O       38.193903879113      60.814142858238      25.744812371013
H       39.957907153432      57.569654483122      25.174796261920
H       35.649324051285      56.994837056031      26.032983906844
H       36.325942097228      61.894967151807      26.507137902277
H       33.881020626525      58.262777254241      27.342361481690
H       34.240497658353      60.596785019299      27.606252983967
H       40.449034187233      62.284632883738      25.696048820214
H       40.674822017604      60.677404689357      25.850644440704
H       41.037675490467      61.099469922278      24.276126951539
21
Properties=species:S:1:pos:R:3 frame=60 pbc="F F F" comment="synthetic demo geometry, see scripts/make_demo_data.py"
C       37.572464638512      57.894564319385      27.372849738086
C       39.222577639995      58.632770928242      25.276114529198
C       38.494661605922      56.984034464707      26.914145870722
C       39.439157130945      57.438500537580      25.947526311210
C       36.780348017995      62.306211505152      23.928220787892
C       37.326705075834      59.051165968741      26.637481681557
C       38.151098930068      59.290231846585      25.641726580112
O       35.539633859941      59.591013388177      27.983035928652
O       37.766665093247      62.306417314565      26.097959456182
O       35.499115473553      60.581630329691      25.974991780064
C       36.109239872499      59.746392787196      26.967788437223
C       37.496529656154      61.658579683835      25.021977639279
O       37.953594347359      60.384696509079      24.774365959236
H       34.835749429279      60.999920529066      26.396011217969
H       37.014712314862      57.402821721988      28.168562152306
H       39.925013631472      59.131992103062      24.424800928479
H       38.762189885606      55.780907504934      27.567519446715
H       40.153157559538      56.624642815382      25.531978917930
H       37.422698543290      62.261246494970      23.107993485047
H       36.057165557811      61.769408065000      23.670898805419
H       36.411088374362      63.243055305529      24.330385893160
21
Properties=species:S:1:pos:R:3 frame=61 pbc="F F F" comment="synthetic demo geometry, see scripts/make_demo_data.py"
C       40.009675990990      59.524668228901      26.061450890882
C       38.261476932403      61.666957958630      25.269247601480
C       40.457062536117      60.610331428850      25.369931088282
C       39.656413887060      61.762620845941      25.056047476218
C       34.326176839191      59.210484109196      25.380923899442
C       38.632256508169      59.392186025276      26.119145712190
C       37.756523137093      60.415139096044      25.738993790516
O       38.808120255154      57.332085525076      27.069031054014
O       35.787224027706      58.696772289306      27.209366889023
O       36.823287200113      57.656236681678      26.065991461557
C       38.119401392449      58.028107000251      26.527294501630
C       35.538518810017      59.389829704313      26.218167103383
O       36.375920158886      60.324519537743      25.716747865438
H       36.685625350908      56.749307212154      26.412897232858
H       40.687782899314      58.817204366797      26.197682749572
H       37.482429910362      62.363920672608      25.149996430904
H       41.751076745543      60.549858026137      25.118521603771
H       40.083573131188      62.547268413561      24.551907413102
H       33.807348845105      60.311183755881      25.442279894746
H       34.604251126562      59.139967587087      24.522337219549
H       33.903018343067      58.614899825208      25.834429747296
21
Properties=species:S:1:pos:R:3 frame=62 pbc="F F F" comment="synthetic demo geometry, see scripts/make_demo_data.py"
C       39.326133861276      60.666333388551      24.449308740244
C       38.338918575198      61.286875272414      27.002753064739
C       39.578621946683      61.968282965311      25.031166737797
C       39.140845765213      62.216136847715      26.331706233684
C       35.025901385347      57.963567386615      27.158092218898
C       38.318282072476      59.956948480410      25.023888316741
C       37.752271418188      60.168503915080      26.266159980226
O       38.489318958317      58.044926635512      23.560984698871
O       37.295792289279      57.234403175784      26.794021012026
O       36.418151824392      58.571682620588      24.139226707313
C       37.817830728965      58.680237152382      24.284649252262
C       36.490402535911      58.163433048205      27.059939441501
O       36.761148915681      59.568491102293      26.940706166196
H       36.125335451796      57.701505996572      23.699842476336
H       39.765839135787      60.580507066167      23.419401860075
H       37.973577261144      61.329823158451      27.901498469485
H       40.173140776184      62.779084040125      24.517483884583
H       39.491199402246      63.070506097493      26.667417254280
H       34.789441061823      58.402696310125      28.196332087582
H       34.460331926962      58.487342970443      26.547018327098
H       35.017814296885      57.059325421899      27.005482071320
21
Properties=species:S:1:pos:R:3 frame=63 pbc="F F F" comment="synthetic demo geometry, see scripts/make_demo_data.py"
C       38.486729686930      59.085872617068      23.768691302029
C       35.916605082040      60.202160695974      24.262077477102
C       37.417370363506      58.933609829277      22.890123980944
C       36.201989984358      59.669236478720      23.024375202988
C       36.671968977844      60.812116069581      28.867054723228
C       38.026442515722      59.403266780557      24.998230101395
C       36.962588335832      59.969015005162      25.375043258377
O       40.221648869859      59.726450663498      26.095004021973
O       37.701042527766      62.200827946754      27.104106128636
O       38.893759670029      58.180416167364      27.090682746515
C       39.122597260715      59.111855884640      26.126401383618
C       37.016090298371      61.175422804709      27.448043376409
O       36.448470107878      60.318508897185      26.574380391390
H       39.577358908145      58.046247040283      27.826642458186
H       39.215882472473      58.441561618440      23.429163492762
H       35.080372232377      60.556702556668      24.776013765462
H       37.563021641516      58.549682107629      21.685069312965
H       35.440133255560      59.564538856342      22.421099827756
H       35.602045987898      60.926871910642      28.944236302879
H       36.954863623380      59.725497885899      29.085287176257
H       37.204764595334      61.531505156158      29.358060719270
